p cnf 40161 1034
-175 0
-211 2589 0
-2589 2590 0
-2590 -215 0
2671 209 0
2673 211 -2671 0
2675 -2673 221 0
2676 -2675 0
2678 -2676 229 0
2680 -2678 231 0
-2680 237 2682 0
-2682 238 0
2703 -215 0
2704 -2703 0
2705 -2704 0
2706 -2705 0
2707 -2706 0
-237 -2707 0
2759 -247 0
2760 -2759 0
2761 -2760 0
2762 -2761 0
-255 -2762 0
2795 245 0
2796 -2795 0
247 2797 -2795 0
-2797 2799 257 0
-2799 2800 0
-2799 259 2801 0
-2801 269 2803 0
-2803 270 2805 0
-2805 273 0
2798 -2796 257 0
259 2800 -2798 0
-2800 2802 269 0
-2802 2804 270 0
-2804 2806 273 0
-2806 274 0
2882 256 0
2884 -2882 266 0
2886 -2884 268 0
2888 274 -2886 0
2890 -2888 276 0
278 2892 -2890 0
-2892 280 0
4153 563 0
4155 -4153 564 0
4157 -4155 567 0
4159 -4157 568 0
4160 -4159 0
4162 -4160 572 0
4164 -4162 575 0
576 -4164 0
4178 563 0
4180 -4178 577 0
4182 -4180 578 0
4184 -4182 581 0
-4184 4186 582 0
-4186 4188 585 0
-4188 586 0
4201 562 0
4203 -4201 564 0
579 4205 -4203 0
-4205 4207 580 0
-4207 583 4209 0
-4209 584 4211 0
-4211 587 0
4225 565 0
4227 -4225 567 0
4229 -4227 577 0
579 -4229 4231 0
-4231 4232 0
-4232 590 4234 0
-4234 4236 593 0
-4236 594 0
590 592 570 584 600 572 599 582 0
-575 0
-585 0
-587 0
-593 0
-599 0
-606 0
4373 606 0
4375 -4373 608 0
4377 618 -4375 0
4378 -4377 0
620 -4377 4379 0
-4379 4381 631 0
-4381 632 4383 0
-4383 4384 0
4380 -4378 631 0
4382 -4380 632 0
635 -4382 4384 0
-4384 636 0
-655 0
-677 0
-679 0
-756 0
-791 0
-797 0
-825 0
5585 881 0
5586 -5585 0
882 5587 -5585 0
-5587 5589 885 0
-5589 5591 886 0
-5591 889 5593 0
-5593 5595 890 0
-5595 893 0
5588 885 -5586 0
5590 -5588 886 0
5592 889 -5590 0
5594 -5592 890 0
5596 -5594 893 0
894 -5596 0
5598 -882 0
-5598 -885 5600 0
-5600 5602 0
-5602 5604 0
-5604 -890 0
5609 883 0
5611 -5609 884 0
5613 -5611 887 0
5615 -5613 888 0
5616 -5615 0
891 5617 -5615 0
5618 -5617 0
-5617 892 5619 0
-5619 5620 0
-5619 895 0
5618 -5616 892 0
-5618 895 5620 0
-5620 896 0
-881 5633 0
-5633 5634 0
-883 5634 0
-5634 5635 0
-897 5635 0
-5635 5636 0
-898 5636 0
-5636 5637 0
-5637 5638 0
-5638 -905 0
882 908 899 884 903 904 907 900 0
5647 885 0
5649 -5647 887 0
5651 -5649 897 0
5653 -5651 899 0
5654 -5653 0
5655 -5653 909 0
5656 -5655 0
910 -5655 5657 0
-5657 913 0
5656 910 -5654 0
5658 -5656 913 0
914 -5658 0
912 911 886 888 898 900 915 916 0
5679 -891 0
5680 -5679 0
5681 -5680 0
-903 -5680 0
-903 5681 0
5682 -5681 0
-909 -5681 0
-909 5682 0
-911 -5682 0
5685 890 0
5686 -5685 0
5687 892 -5685 0
5689 -5687 902 0
5691 -5689 904 0
5692 -5691 0
5686 892 0
5688 -5686 902 0
5690 -5688 904 0
5692 910 -5690 0
5694 912 -5692 0
-5694 919 5696 0
-5696 920 0
-890 5697 0
-5697 -892 5699 0
-5699 5700 0
5698 -892 0
-5698 5701 0
-5700 5702 0
-5701 5703 0
-5702 -910 0
-5703 5705 0
-910 -5703 5704 0
-5704 5706 0
-912 -5704 0
-910 5705 0
-5705 -912 5706 0
-5706 -919 0
-893 5721 0
-5721 5722 0
-5721 -895 5723 0
-5723 -905 0
-895 5722 0
-5722 5724 -905 0
-5724 5726 0
-907 -5724 0
5725 -905 0
5727 -5725 0
-5726 5728 0
-913 -5726 0
-913 5728 -5727 0
-5728 5730 0
-5730 5732 0
-5732 -919 0
5746 -896 0
5749 -5746 0
-908 5750 -5749 0
-5750 -914 0
-886 0
-887 0
-1121 0
-568 0
-608 0
-888 0
-245 0
-1154 0
-1157 0
-1161 0
-1178 0
7760 -247 0
7763 -7760 0
-1202 -7763 7764 0
-7764 -1205 0
-570 0
-1287 0
-1293 0
-1297 0
-1298 0
532 8696 0
-8696 8698 612 0
-8698 1326 8700 0
-8700 8701 0
8697 612 0
8699 1326 -8697 0
1328 -8699 8701 0
-8701 1334 8703 0
-8703 8705 1336 0
-8705 8707 1343 0
-8707 1344 0
495 215 695 375 175 535 655 335 0
9126 175 0
255 9128 -9126 0
1393 -9128 9130 0
-9130 9132 1394 0
-9132 9133 0
1397 -9132 9134 0
-9134 9136 1398 0
-9136 1401 0
-9133 9135 1398 0
-9135 9137 1401 0
-9137 1402 0
9174 335 0
9176 -9174 415 0
9178 1393 -9176 0
9180 -9178 1395 0
1405 9182 -9180 0
-9182 9184 1406 0
-9184 9185 0
-9185 1410 0
9234 -495 0
9235 -9234 0
9237 -9235 -1397 0
9239 -9237 0
-9239 -1405 0
-535 0
-1398 0
-1406 0
9270 -695 0
9271 -9270 0
-1402 -9271 0
9272 -1402 0
9273 -9272 0
-1410 -9273 0
9469 -657 0
9470 -697 -9469 0
9472 -9470 0
-9472 -857 0
9473 81 0
9475 -9473 121 0
9476 -9475 0
9477 577 -9475 0
9479 -9477 617 0
737 9481 -9479 0
-9481 777 9483 0
-9483 897 0
9478 -9476 617 0
9480 737 -9478 0
9482 777 -9480 0
9484 -9482 897 0
937 -9484 0
-81 0
-1249 0
-1273 0
-1369 0
9522 -577 0
9523 -9522 0
9524 -9523 0
9525 -9524 0
-1442 -9525 0
657 9535 0
-9535 9537 737 0
9539 -9537 1249 0
9541 -9539 1297 0
-9541 9543 1441 0
-9543 9545 1443 0
-9545 9546 0
9536 737 0
-9536 9538 1249 0
-9538 9540 1297 0
9542 -9540 1441 0
9544 -9542 1443 0
1449 -9544 9546 0
-9546 1450 0
697 9559 0
-9559 9561 777 0
9563 -9561 1273 0
-9563 9564 0
-9564 1442 9566 0
-9566 9568 1444 0
-9568 9570 1451 0
-9570 1452 0
9596 -897 0
9599 -9596 0
-1393 -9599 9600 0
-9600 9602 0
-9602 9604 0
-9604 -1449 0
857 9607 0
-9607 9608 0
9610 -9608 1369 0
-9610 9612 1417 0
-9612 9614 1446 0
-9614 9616 1448 0
-9616 9618 1450 0
-9618 1452 0
9631 2 0
9633 42 -9631 0
9635 -9633 498 0
9636 -9635 0
9638 -9636 658 0
698 9640 -9638 0
9642 818 -9640 0
-9642 858 0
-82 9655 0
-9655 9656 0
-122 9656 0
9657 -9656 0
-9656 -578 0
9657 -578 0
-618 -9657 0
9662 2 0
9664 82 -9662 0
-9664 9666 1154 0
-9666 9668 1178 0
9670 -9668 1250 0
9671 -9670 0
1274 9672 -9670 0
-9672 1346 0
9673 1346 -9671 0
1370 -9673 0
9686 42 0
9688 122 -9686 0
9689 -9688 0
-9688 1202 9690 0
9691 -9690 0
-9690 1226 9692 0
-9692 9694 1298 0
-9694 9696 1322 0
-9696 1394 0
9691 -9689 1226 0
-9691 9693 1298 0
9695 -9693 1322 0
9697 -9695 1394 0
1418 -9697 0
9710 498 0
9711 -9710 0
9712 578 -9710 0
-9712 9714 1154 0
9715 -9714 0
1202 9716 -9714 0
-9716 9718 1453 0
-9718 9720 1454 0
-9720 9721 0
9713 -9711 1154 0
1202 9715 -9713 0
9717 -9715 1453 0
9719 -9717 1454 0
9721 1457 -9719 0
1458 -9721 0
9734 538 0
9736 618 -9734 0
-9736 9738 1178 0
9739 -9738 0
9740 1226 -9738 0
-9740 9742 1455 0
-9742 1456 9744 0
-9744 1459 0
9735 618 0
-9735 9737 1178 0
9739 1226 -9737 0
9741 -9739 1455 0
9743 -9741 1456 0
9745 -9743 1459 0
-9745 1460 0
-658 0
-1250 0
-1453 0
-1455 0
-858 9801 0
-9801 9802 0
-9802 9805 0
9805 -1370 0
9806 -1418 -9805 0
9808 -9806 0
-1460 -9808 0
-899 0
-1395 0
-1469 0
-1491 0
-1515 0
-1520 0
-341 10901 0
-10901 10903 0
-10903 10904 -501 0
-10904 -541 0
10909 89 0
10911 -10909 129 0
10912 -10911 0
10914 -10912 461 0
10916 -10914 581 0
10918 -10916 621 0
-10918 10920 905 0
-10920 945 0
-421 10925 0
-10925 10927 0
-10927 -581 10928 0
-10928 10930 0
10929 -581 0
-621 -10929 10930 0
-10930 -905 0
-129 10958 0
-10958 10959 0
-10959 10960 0
-10960 10961 0
10961 -1205 0
-1229 -10961 0
10964 341 0
10965 -10964 0
10966 -10964 421 0
1061 -10966 10968 0
-10968 10969 0
-10968 1109 10970 0
-10970 10972 1537 0
-10972 1538 10974 0
-10974 1541 0
10967 1061 -10965 0
10969 -10967 1109 0
10971 -10969 1537 0
10973 -10971 1538 0
10975 -10973 1541 0
1542 -10975 0
-461 0
-1539 0
-1540 0
-1543 0
-1544 0
501 10988 0
-10988 10989 0
-10988 10990 581 0
10992 -10990 1157 0
-10992 10993 0
-10992 1205 10994 0
-10994 10996 1537 0
10998 -10996 1539 0
-10998 10999 0
10989 581 0
-10989 10991 1157 0
1205 10993 -10991 0
-10993 10995 1537 0
10997 -10995 1539 0
-10997 10999 1545 0
-10999 1546 0
541 11012 0
-11012 11013 0
-11012 11014 621 0
-11014 11016 1181 0
-11016 11017 0
-11016 11018 1229 0
-11018 11020 1538 0
11022 -11020 1540 0
-11022 1547 0
11013 621 0
11015 -11013 1181 0
11017 1229 -11015 0
-11017 1538 11019 0
11021 -11019 1540 0
-11021 11023 1547 0
-11023 1548 0
11036 825 0
11037 -11036 0
11038 905 -11036 0
-11038 11039 0
11039 1353 -11037 0
-11039 11041 1401 0
-11041 11043 1541 0
11045 -11043 1543 0
-11045 11047 1545 0
-11047 1547 0
11064 -1542 0
11065 -11064 0
11066 -11065 0
-1548 -11066 0
-583 11367 0
-11367 11368 0
-11368 11369 0
-11369 11370 0
-11370 11371 0
-11371 -1569 0
505 11693 0
11695 -11693 585 0
11697 -11695 1161 0
-11697 11698 0
11694 585 0
11696 -11694 1161 0
11698 1209 -11696 0
-11698 11700 1585 0
-11700 11702 1587 0
-11702 11704 1593 0
-11704 1594 0
-1603 0
12708 -259 0
12709 -12708 0
12710 -12709 0
12711 -12710 0
-1551 -12711 0
711 12762 0
12764 -12762 791 0
12766 -12764 1287 0
-12766 12768 1335 0
-12768 1551 12770 0
-12770 12771 0
12763 791 0
12765 -12763 1287 0
12767 -12765 1335 0
12769 1551 -12767 0
1575 -12769 12771 0
-12771 1643 12773 0
-12773 1644 0
13356 -63 0
-183 -13356 13358 0
-13358 -223 0
-143 0
-263 0
-303 0
-631 0
-915 0
63 13374 0
13376 -13374 143 0
-13376 13378 1015 0
-13378 13380 1039 0
-13380 1215 13382 0
-13382 1239 13384 0
-13384 13385 0
13375 143 0
13377 -13375 1015 0
13379 1039 -13377 0
13381 1215 -13379 0
13383 -13381 1239 0
1411 -13383 13385 0
-13385 1435 0
183 13398 0
13400 -13398 263 0
-13400 13402 967 0
-13402 13404 1015 0
13406 -13404 1491 0
-13406 13407 0
13399 263 0
967 13401 -13399 0
13403 -13401 1015 0
-13403 13405 1491 0
1503 13407 -13405 0
-13407 1591 13409 0
-13409 1603 0
13422 223 0
-13422 13424 303 0
13425 -13424 0
-13425 13427 1039 0
13429 -13427 1515 0
-13429 1527 13431 0
-13431 1615 13433 0
-13433 1627 0
13473 -1503 0
-1527 -13473 13474 0
-13474 -1659 0
13495 -1411 0
13497 -13495 0
-1591 -13495 13496 0
-13496 13498 0
-1615 -13497 13498 0
-13498 13500 0
-13500 -1659 0
-1541 0
-266 0
-594 0
-268 0
-596 0
-636 0
14336 516 0
-14336 14338 596 0
14339 -14338 0
1172 -14338 14340 0
-14340 1220 14342 0
-14342 14343 0
14341 -14339 1220 0
1496 -14341 14343 0
14345 -14343 1520 0
-14345 14347 1677 0
-14347 1678 0
14385 756 0
1268 14387 -14385 0
14389 1316 -14387 0
-14389 14391 1544 0
14393 1568 -14391 0
-14393 14395 1677 0
-14395 1679 0
-1441 0
33 73 193 353 233 393 677 717 0
-153 0
-273 0
-313 0
-433 0
15145 153 0
1025 15147 -15145 0
15149 1049 -15147 0
-15149 15151 1121 0
-15151 1145 15153 0
-15153 1317 15155 0
-15155 1341 0
-193 15180 0
-15180 15181 0
-15181 15184 0
-15184 15186 0
-1025 15186 0
-15186 15188 0
-1445 15188 0
-15188 15189 -1457 0
-15189 -1545 0
15190 -1457 0
15191 -15190 -1545 0
-1557 -15191 0
15192 233 0
15194 -15192 313 0
15195 -15194 0
1001 15196 -15194 0
-15196 15197 0
1049 15197 -15195 0
15199 -15197 1469 0
-15199 15201 1481 0
-15201 1569 15203 0
-15203 1581 0
15216 353 0
15218 -15216 433 0
15220 1073 -15218 0
15222 -15220 1121 0
-15222 15224 1445 0
15226 -15224 1469 0
-15226 1649 0
-1145 15243 0
-15243 -1457 0
15271 717 0
15273 -15271 797 0
15275 -15273 1293 0
15277 1341 -15275 0
15279 1557 -15277 0
15280 -15279 0
1653 15282 -15280 0
-15282 1661 0
-274 15392 0
-15392 15393 0
-15393 15394 0
-15394 15395 0
15396 -15395 0
-15395 -1458 0
-1546 -15396 0
-1319 0
-1343 0
15601 679 0
15602 -15601 0
15603 759 -15601 0
-15603 15605 1271 0
15607 -15605 1319 0
-15607 15609 1547 0
-15609 15611 1571 0
-15611 1651 0
15604 -15602 1271 0
15606 -15604 1319 0
15608 1547 -15606 0
15610 -15608 1571 0
15612 1651 -15610 0
1659 -15612 0
16056 -278 0
16057 -16056 0
16058 -16057 0
-1450 -16058 0
-375 0
-1336 0
25733 -73 0
25734 -25733 0
-1317 -25734 0
-121 0
-229 0
-238 26856 0
-26856 -215 0
-884 0
-904 0
-231 0
-270 0
-256 0
-777 27344 0
-27344 27345 0
-27345 -259 0
27495 -274 0
-27495 27496 0
-27496 27497 0
-27497 27498 0
-27498 27499 0
-280 27499 0
-27499 -259 0
-257 0
-276 0
-335 0
-885 28257 0
-28257 -912 0
-33 28521 0
-28521 -1073 0
28776 -421 0
-89 -28776 28778 0
-28778 28779 0
-28779 -1542 0
29301 -505 0
-516 -29301 0
29396 -1328 0
29399 -29396 0
-495 -29399 29400 0
-29400 29402 0
-29402 -501 0
-221 0
-498 0
-717 0
29789 -538 0
-29789 -698 29791 0
-29791 -1457 0
-920 0
29974 -1001 0
29976 -29974 0
29977 -576 -29976 0
-577 -29977 0
-565 30002 0
-30002 30003 0
-30003 30004 0
-30004 -885 0
30005 -885 0
30006 -30005 0
-590 -30005 0
-564 -30006 0
30037 -891 0
30038 -30037 0
-567 -30038 0
30113 -578 0
-30113 30114 0
-1456 -30113 30115 0
-30115 -1457 0
-1456 30114 0
-30114 -1457 30116 0
-30116 30118 0
-1457 30117 0
-30117 30119 0
-30118 30120 0
-30119 30121 0
-30120 30122 0
-30121 30122 -592 0
-30122 -581 0
30150 -581 0
30151 -30150 0
30154 -30151 0
-1545 -30151 30153 0
-30153 30155 0
30154 -1545 0
30155 -30154 -905 0
30157 -30155 0
30159 -30157 0
-572 -30157 0
30161 -30159 0
-578 -30159 0
-580 -30161 0
-1581 30180 0
-30180 -908 0
30181 -908 0
30182 -30181 0
-562 -30181 0
-563 -30182 0
-600 30186 0
-30186 -579 0
-393 0
-889 30299 0
-30299 -910 0
-612 30349 0
-30349 30350 0
-1334 30350 0
-30350 30351 0
-30351 30352 0
-632 30352 0
-30352 -621 0
30394 -620 0
30395 -30394 0
30398 -30395 0
-30398 30400 0
-30400 30401 -621 0
-30401 -635 0
-617 0
31084 -532 0
31085 -31084 0
-31085 -695 0
-269 0
-415 0
32466 -1353 0
-341 32468 -32466 0
-32468 -1548 0
32614 -892 0
-885 -32614 0
32666 -1209 0
32669 -32666 0
-1220 -32669 32670 0
-32670 32672 0
-32672 -894 0
-1268 32693 0
-32693 -916 32694 0
-32694 -892 0
32719 -896 0
32720 -32719 0
32723 -32720 0
32725 -32723 0
-572 32725 0
32727 -32725 0
-916 -32727 32728 0
-32728 -905 0
-890 32734 0
-896 -32734 0
32745 -882 0
32746 -32745 -910 0
-32746 -911 0
-578 32748 0
-32748 32751 0
-32751 -916 32752 0
-32752 -905 0
32777 -905 0
32778 -32777 0
-581 32779 -32777 0
-32779 32780 0
32781 -32778 0
32782 -32780 0
-32780 -896 0
32782 -896 -32781 0
32784 -32782 0
-900 -32784 0
-582 32786 0
-32786 32787 0
-32787 32788 0
-32788 32789 0
32789 -914 0
-32789 -895 0
-902 0
32802 -909 0
-1585 32804 -32802 0
-32804 32805 0
-32805 32807 0
-32807 -916 0
-1593 32872 0
-32872 32875 0
-32875 32877 0
-1677 32877 0
-32877 32879 0
-32879 32880 -910 0
-32880 -894 0
-1594 32882 0
-32882 32885 0
-32885 32887 0
-1678 32887 0
-32887 32888 -892 0
-32888 32890 0
-32890 -909 0
-233 0
32906 -891 0
-32906 -892 0
-42 33043 0
-33043 -1457 0
-1443 0
-209 0
34285 -1073 0
-34285 -1653 34287 0
-34287 34288 0
-34288 -1049 0
-1435 0
-1015 0
34771 -82 0
-122 -34771 0
-1335 0
-1181 0
35527 -1274 0
-1459 -35527 35529 0
-35529 35531 0
-35531 35533 0
-35533 -1205 0
-1239 35807 0
-35807 35808 0
-1039 35808 0
-35808 -1659 0
-1271 0
35954 -1229 0
-35954 -1061 0
36116 -1274 0
36117 -36116 0
-36117 -1370 36119 0
-36119 -1202 0
-967 36396 0
-36396 -63 0
-1401 0
-1344 0
-1322 0
-2 0
-1394 0
-1575 37516 0
37517 -37516 0
-37516 -737 0
-1444 -37517 0
37550 -1449 0
-1417 -37550 0
-1451 37553 0
-37553 -937 0
37576 -1449 0
-1448 -37576 37577 0
-37577 -577 0
37711 -1457 0
37712 -37711 0
-1649 37713 -37711 0
-37713 37714 0
37715 -37712 0
-1661 -37712 37714 0
-37714 -1545 0
37717 -37715 0
37719 -37717 0
-538 37720 -37719 0
-578 -37720 0
-1459 37731 0
-37731 37732 0
-1651 37732 0
-37732 37735 0
37737 -37735 0
-37735 -1547 37736 0
-37736 37738 0
37737 -1547 0
37739 -37737 0
-37738 37740 0
37741 -37739 0
-1346 -37739 37740 0
-37740 37742 0
-37740 -1202 0
37742 -37741 -1202 0
-1226 -37742 0
37761 -1418 0
-818 -37761 0
-1481 0
-353 37982 0
-37982 -1545 0
38103 -1496 0
38105 -38103 -1172 0
38106 -38105 0
-1679 -38105 0
38108 -38106 0
-1568 -38108 0
38141 -541 0
38142 -38141 0
38143 -38142 0
-1326 -38143 0
-1537 0
38597 -1545 0
-1109 -38597 0
-1538 38604 0
-38604 -501 0
38613 -1545 0
38614 -38613 0
-1341 -38613 38615 0
-38615 -1457 0
38617 -38614 0
38617 -1457 0
38619 -38617 0
38621 -38619 0
-38621 -541 38622 0
38624 -38622 0
-38622 -581 0
-945 -38624 0
38724 -1496 0
38725 -38724 0
-1316 -38725 0
-1571 0
-584 0
-1587 0
39228 -1049 0
39229 -39228 0
39230 -39229 0
-586 -39230 0
-1643 39266 0
-39266 -259 0
-1446 0
-1644 0
-1452 39619 0
-39619 39620 0
-39620 39621 0
-39621 -711 0
39820 -1659 0
39822 -759 -39820 0
39823 -39822 0
39825 -39823 0
39827 -39825 0
39829 -39827 0
-1627 -39827 0
-1215 -39829 0
-1454 0
