p cnf 1260 29655
-1 -2 361 0
1 -361 0
2 -361 0
-1 -3 362 0
1 -362 0
3 -362 0
-1 -4 363 0
1 -363 0
4 -363 0
-1 -5 364 0
1 -364 0
5 -364 0
-1 -6 365 0
1 -365 0
6 -365 0
-2 -3 366 0
2 -366 0
3 -366 0
-2 -4 367 0
2 -367 0
4 -367 0
-2 -5 368 0
2 -368 0
5 -368 0
-2 -6 369 0
2 -369 0
6 -369 0
-3 -4 370 0
3 -370 0
4 -370 0
-3 -5 371 0
3 -371 0
5 -371 0
-3 -6 372 0
3 -372 0
6 -372 0
-4 -5 373 0
4 -373 0
5 -373 0
-4 -6 374 0
4 -374 0
6 -374 0
-5 -6 375 0
5 -375 0
6 -375 0
-7 -8 376 0
7 -376 0
8 -376 0
-7 -9 377 0
7 -377 0
9 -377 0
-7 -10 378 0
7 -378 0
10 -378 0
-7 -11 379 0
7 -379 0
11 -379 0
-7 -12 380 0
7 -380 0
12 -380 0
-8 -9 381 0
8 -381 0
9 -381 0
-8 -10 382 0
8 -382 0
10 -382 0
-8 -11 383 0
8 -383 0
11 -383 0
-8 -12 384 0
8 -384 0
12 -384 0
-9 -10 385 0
9 -385 0
10 -385 0
-9 -11 386 0
9 -386 0
11 -386 0
-9 -12 387 0
9 -387 0
12 -387 0
-10 -11 388 0
10 -388 0
11 -388 0
-10 -12 389 0
10 -389 0
12 -389 0
-11 -12 390 0
11 -390 0
12 -390 0
-13 -14 391 0
13 -391 0
14 -391 0
-13 -15 392 0
13 -392 0
15 -392 0
-13 -16 393 0
13 -393 0
16 -393 0
-13 -17 394 0
13 -394 0
17 -394 0
-13 -18 395 0
13 -395 0
18 -395 0
-14 -15 396 0
14 -396 0
15 -396 0
-14 -16 397 0
14 -397 0
16 -397 0
-14 -17 398 0
14 -398 0
17 -398 0
-14 -18 399 0
14 -399 0
18 -399 0
-15 -16 400 0
15 -400 0
16 -400 0
-15 -17 401 0
15 -401 0
17 -401 0
-15 -18 402 0
15 -402 0
18 -402 0
-16 -17 403 0
16 -403 0
17 -403 0
-16 -18 404 0
16 -404 0
18 -404 0
-17 -18 405 0
17 -405 0
18 -405 0
-19 -20 406 0
19 -406 0
20 -406 0
-19 -21 407 0
19 -407 0
21 -407 0
-19 -22 408 0
19 -408 0
22 -408 0
-19 -23 409 0
19 -409 0
23 -409 0
-19 -24 410 0
19 -410 0
24 -410 0
-20 -21 411 0
20 -411 0
21 -411 0
-20 -22 412 0
20 -412 0
22 -412 0
-20 -23 413 0
20 -413 0
23 -413 0
-20 -24 414 0
20 -414 0
24 -414 0
-21 -22 415 0
21 -415 0
22 -415 0
-21 -23 416 0
21 -416 0
23 -416 0
-21 -24 417 0
21 -417 0
24 -417 0
-22 -23 418 0
22 -418 0
23 -418 0
-22 -24 419 0
22 -419 0
24 -419 0
-23 -24 420 0
23 -420 0
24 -420 0
-25 -26 421 0
25 -421 0
26 -421 0
-25 -27 422 0
25 -422 0
27 -422 0
-25 -28 423 0
25 -423 0
28 -423 0
-25 -29 424 0
25 -424 0
29 -424 0
-25 -30 425 0
25 -425 0
30 -425 0
-26 -27 426 0
26 -426 0
27 -426 0
-26 -28 427 0
26 -427 0
28 -427 0
-26 -29 428 0
26 -428 0
29 -428 0
-26 -30 429 0
26 -429 0
30 -429 0
-27 -28 430 0
27 -430 0
28 -430 0
-27 -29 431 0
27 -431 0
29 -431 0
-27 -30 432 0
27 -432 0
30 -432 0
-28 -29 433 0
28 -433 0
29 -433 0
-28 -30 434 0
28 -434 0
30 -434 0
-29 -30 435 0
29 -435 0
30 -435 0
-31 -32 436 0
31 -436 0
32 -436 0
-31 -33 437 0
31 -437 0
33 -437 0
-31 -34 438 0
31 -438 0
34 -438 0
-31 -35 439 0
31 -439 0
35 -439 0
-31 -36 440 0
31 -440 0
36 -440 0
-32 -33 441 0
32 -441 0
33 -441 0
-32 -34 442 0
32 -442 0
34 -442 0
-32 -35 443 0
32 -443 0
35 -443 0
-32 -36 444 0
32 -444 0
36 -444 0
-33 -34 445 0
33 -445 0
34 -445 0
-33 -35 446 0
33 -446 0
35 -446 0
-33 -36 447 0
33 -447 0
36 -447 0
-34 -35 448 0
34 -448 0
35 -448 0
-34 -36 449 0
34 -449 0
36 -449 0
-35 -36 450 0
35 -450 0
36 -450 0
-37 -38 451 0
37 -451 0
38 -451 0
-37 -39 452 0
37 -452 0
39 -452 0
-37 -40 453 0
37 -453 0
40 -453 0
-37 -41 454 0
37 -454 0
41 -454 0
-37 -42 455 0
37 -455 0
42 -455 0
-38 -39 456 0
38 -456 0
39 -456 0
-38 -40 457 0
38 -457 0
40 -457 0
-38 -41 458 0
38 -458 0
41 -458 0
-38 -42 459 0
38 -459 0
42 -459 0
-39 -40 460 0
39 -460 0
40 -460 0
-39 -41 461 0
39 -461 0
41 -461 0
-39 -42 462 0
39 -462 0
42 -462 0
-40 -41 463 0
40 -463 0
41 -463 0
-40 -42 464 0
40 -464 0
42 -464 0
-41 -42 465 0
41 -465 0
42 -465 0
-43 -44 466 0
43 -466 0
44 -466 0
-43 -45 467 0
43 -467 0
45 -467 0
-43 -46 468 0
43 -468 0
46 -468 0
-43 -47 469 0
43 -469 0
47 -469 0
-43 -48 470 0
43 -470 0
48 -470 0
-44 -45 471 0
44 -471 0
45 -471 0
-44 -46 472 0
44 -472 0
46 -472 0
-44 -47 473 0
44 -473 0
47 -473 0
-44 -48 474 0
44 -474 0
48 -474 0
-45 -46 475 0
45 -475 0
46 -475 0
-45 -47 476 0
45 -476 0
47 -476 0
-45 -48 477 0
45 -477 0
48 -477 0
-46 -47 478 0
46 -478 0
47 -478 0
-46 -48 479 0
46 -479 0
48 -479 0
-47 -48 480 0
47 -480 0
48 -480 0
-49 -50 481 0
49 -481 0
50 -481 0
-49 -51 482 0
49 -482 0
51 -482 0
-49 -52 483 0
49 -483 0
52 -483 0
-49 -53 484 0
49 -484 0
53 -484 0
-49 -54 485 0
49 -485 0
54 -485 0
-50 -51 486 0
50 -486 0
51 -486 0
-50 -52 487 0
50 -487 0
52 -487 0
-50 -53 488 0
50 -488 0
53 -488 0
-50 -54 489 0
50 -489 0
54 -489 0
-51 -52 490 0
51 -490 0
52 -490 0
-51 -53 491 0
51 -491 0
53 -491 0
-51 -54 492 0
51 -492 0
54 -492 0
-52 -53 493 0
52 -493 0
53 -493 0
-52 -54 494 0
52 -494 0
54 -494 0
-53 -54 495 0
53 -495 0
54 -495 0
-55 -56 496 0
55 -496 0
56 -496 0
-55 -57 497 0
55 -497 0
57 -497 0
-55 -58 498 0
55 -498 0
58 -498 0
-55 -59 499 0
55 -499 0
59 -499 0
-55 -60 500 0
55 -500 0
60 -500 0
-56 -57 501 0
56 -501 0
57 -501 0
-56 -58 502 0
56 -502 0
58 -502 0
-56 -59 503 0
56 -503 0
59 -503 0
-56 -60 504 0
56 -504 0
60 -504 0
-57 -58 505 0
57 -505 0
58 -505 0
-57 -59 506 0
57 -506 0
59 -506 0
-57 -60 507 0
57 -507 0
60 -507 0
-58 -59 508 0
58 -508 0
59 -508 0
-58 -60 509 0
58 -509 0
60 -509 0
-59 -60 510 0
59 -510 0
60 -510 0
-61 -62 511 0
61 -511 0
62 -511 0
-61 -63 512 0
61 -512 0
63 -512 0
-61 -64 513 0
61 -513 0
64 -513 0
-61 -65 514 0
61 -514 0
65 -514 0
-61 -66 515 0
61 -515 0
66 -515 0
-62 -63 516 0
62 -516 0
63 -516 0
-62 -64 517 0
62 -517 0
64 -517 0
-62 -65 518 0
62 -518 0
65 -518 0
-62 -66 519 0
62 -519 0
66 -519 0
-63 -64 520 0
63 -520 0
64 -520 0
-63 -65 521 0
63 -521 0
65 -521 0
-63 -66 522 0
63 -522 0
66 -522 0
-64 -65 523 0
64 -523 0
65 -523 0
-64 -66 524 0
64 -524 0
66 -524 0
-65 -66 525 0
65 -525 0
66 -525 0
-67 -68 526 0
67 -526 0
68 -526 0
-67 -69 527 0
67 -527 0
69 -527 0
-67 -70 528 0
67 -528 0
70 -528 0
-67 -71 529 0
67 -529 0
71 -529 0
-67 -72 530 0
67 -530 0
72 -530 0
-68 -69 531 0
68 -531 0
69 -531 0
-68 -70 532 0
68 -532 0
70 -532 0
-68 -71 533 0
68 -533 0
71 -533 0
-68 -72 534 0
68 -534 0
72 -534 0
-69 -70 535 0
69 -535 0
70 -535 0
-69 -71 536 0
69 -536 0
71 -536 0
-69 -72 537 0
69 -537 0
72 -537 0
-70 -71 538 0
70 -538 0
71 -538 0
-70 -72 539 0
70 -539 0
72 -539 0
-71 -72 540 0
71 -540 0
72 -540 0
-73 -74 541 0
73 -541 0
74 -541 0
-73 -75 542 0
73 -542 0
75 -542 0
-73 -76 543 0
73 -543 0
76 -543 0
-73 -77 544 0
73 -544 0
77 -544 0
-73 -78 545 0
73 -545 0
78 -545 0
-74 -75 546 0
74 -546 0
75 -546 0
-74 -76 547 0
74 -547 0
76 -547 0
-74 -77 548 0
74 -548 0
77 -548 0
-74 -78 549 0
74 -549 0
78 -549 0
-75 -76 550 0
75 -550 0
76 -550 0
-75 -77 551 0
75 -551 0
77 -551 0
-75 -78 552 0
75 -552 0
78 -552 0
-76 -77 553 0
76 -553 0
77 -553 0
-76 -78 554 0
76 -554 0
78 -554 0
-77 -78 555 0
77 -555 0
78 -555 0
-79 -80 556 0
79 -556 0
80 -556 0
-79 -81 557 0
79 -557 0
81 -557 0
-79 -82 558 0
79 -558 0
82 -558 0
-79 -83 559 0
79 -559 0
83 -559 0
-79 -84 560 0
79 -560 0
84 -560 0
-80 -81 561 0
80 -561 0
81 -561 0
-80 -82 562 0
80 -562 0
82 -562 0
-80 -83 563 0
80 -563 0
83 -563 0
-80 -84 564 0
80 -564 0
84 -564 0
-81 -82 565 0
81 -565 0
82 -565 0
-81 -83 566 0
81 -566 0
83 -566 0
-81 -84 567 0
81 -567 0
84 -567 0
-82 -83 568 0
82 -568 0
83 -568 0
-82 -84 569 0
82 -569 0
84 -569 0
-83 -84 570 0
83 -570 0
84 -570 0
-85 -86 571 0
85 -571 0
86 -571 0
-85 -87 572 0
85 -572 0
87 -572 0
-85 -88 573 0
85 -573 0
88 -573 0
-85 -89 574 0
85 -574 0
89 -574 0
-85 -90 575 0
85 -575 0
90 -575 0
-86 -87 576 0
86 -576 0
87 -576 0
-86 -88 577 0
86 -577 0
88 -577 0
-86 -89 578 0
86 -578 0
89 -578 0
-86 -90 579 0
86 -579 0
90 -579 0
-87 -88 580 0
87 -580 0
88 -580 0
-87 -89 581 0
87 -581 0
89 -581 0
-87 -90 582 0
87 -582 0
90 -582 0
-88 -89 583 0
88 -583 0
89 -583 0
-88 -90 584 0
88 -584 0
90 -584 0
-89 -90 585 0
89 -585 0
90 -585 0
-91 -92 586 0
91 -586 0
92 -586 0
-91 -93 587 0
91 -587 0
93 -587 0
-91 -94 588 0
91 -588 0
94 -588 0
-91 -95 589 0
91 -589 0
95 -589 0
-91 -96 590 0
91 -590 0
96 -590 0
-92 -93 591 0
92 -591 0
93 -591 0
-92 -94 592 0
92 -592 0
94 -592 0
-92 -95 593 0
92 -593 0
95 -593 0
-92 -96 594 0
92 -594 0
96 -594 0
-93 -94 595 0
93 -595 0
94 -595 0
-93 -95 596 0
93 -596 0
95 -596 0
-93 -96 597 0
93 -597 0
96 -597 0
-94 -95 598 0
94 -598 0
95 -598 0
-94 -96 599 0
94 -599 0
96 -599 0
-95 -96 600 0
95 -600 0
96 -600 0
-97 -98 601 0
97 -601 0
98 -601 0
-97 -99 602 0
97 -602 0
99 -602 0
-97 -100 603 0
97 -603 0
100 -603 0
-97 -101 604 0
97 -604 0
101 -604 0
-97 -102 605 0
97 -605 0
102 -605 0
-98 -99 606 0
98 -606 0
99 -606 0
-98 -100 607 0
98 -607 0
100 -607 0
-98 -101 608 0
98 -608 0
101 -608 0
-98 -102 609 0
98 -609 0
102 -609 0
-99 -100 610 0
99 -610 0
100 -610 0
-99 -101 611 0
99 -611 0
101 -611 0
-99 -102 612 0
99 -612 0
102 -612 0
-100 -101 613 0
100 -613 0
101 -613 0
-100 -102 614 0
100 -614 0
102 -614 0
-101 -102 615 0
101 -615 0
102 -615 0
-103 -104 616 0
103 -616 0
104 -616 0
-103 -105 617 0
103 -617 0
105 -617 0
-103 -106 618 0
103 -618 0
106 -618 0
-103 -107 619 0
103 -619 0
107 -619 0
-103 -108 620 0
103 -620 0
108 -620 0
-104 -105 621 0
104 -621 0
105 -621 0
-104 -106 622 0
104 -622 0
106 -622 0
-104 -107 623 0
104 -623 0
107 -623 0
-104 -108 624 0
104 -624 0
108 -624 0
-105 -106 625 0
105 -625 0
106 -625 0
-105 -107 626 0
105 -626 0
107 -626 0
-105 -108 627 0
105 -627 0
108 -627 0
-106 -107 628 0
106 -628 0
107 -628 0
-106 -108 629 0
106 -629 0
108 -629 0
-107 -108 630 0
107 -630 0
108 -630 0
-109 -110 631 0
109 -631 0
110 -631 0
-109 -111 632 0
109 -632 0
111 -632 0
-109 -112 633 0
109 -633 0
112 -633 0
-109 -113 634 0
109 -634 0
113 -634 0
-109 -114 635 0
109 -635 0
114 -635 0
-110 -111 636 0
110 -636 0
111 -636 0
-110 -112 637 0
110 -637 0
112 -637 0
-110 -113 638 0
110 -638 0
113 -638 0
-110 -114 639 0
110 -639 0
114 -639 0
-111 -112 640 0
111 -640 0
112 -640 0
-111 -113 641 0
111 -641 0
113 -641 0
-111 -114 642 0
111 -642 0
114 -642 0
-112 -113 643 0
112 -643 0
113 -643 0
-112 -114 644 0
112 -644 0
114 -644 0
-113 -114 645 0
113 -645 0
114 -645 0
-115 -116 646 0
115 -646 0
116 -646 0
-115 -117 647 0
115 -647 0
117 -647 0
-115 -118 648 0
115 -648 0
118 -648 0
-115 -119 649 0
115 -649 0
119 -649 0
-115 -120 650 0
115 -650 0
120 -650 0
-116 -117 651 0
116 -651 0
117 -651 0
-116 -118 652 0
116 -652 0
118 -652 0
-116 -119 653 0
116 -653 0
119 -653 0
-116 -120 654 0
116 -654 0
120 -654 0
-117 -118 655 0
117 -655 0
118 -655 0
-117 -119 656 0
117 -656 0
119 -656 0
-117 -120 657 0
117 -657 0
120 -657 0
-118 -119 658 0
118 -658 0
119 -658 0
-118 -120 659 0
118 -659 0
120 -659 0
-119 -120 660 0
119 -660 0
120 -660 0
-121 -122 661 0
121 -661 0
122 -661 0
-121 -123 662 0
121 -662 0
123 -662 0
-121 -124 663 0
121 -663 0
124 -663 0
-121 -125 664 0
121 -664 0
125 -664 0
-121 -126 665 0
121 -665 0
126 -665 0
-122 -123 666 0
122 -666 0
123 -666 0
-122 -124 667 0
122 -667 0
124 -667 0
-122 -125 668 0
122 -668 0
125 -668 0
-122 -126 669 0
122 -669 0
126 -669 0
-123 -124 670 0
123 -670 0
124 -670 0
-123 -125 671 0
123 -671 0
125 -671 0
-123 -126 672 0
123 -672 0
126 -672 0
-124 -125 673 0
124 -673 0
125 -673 0
-124 -126 674 0
124 -674 0
126 -674 0
-125 -126 675 0
125 -675 0
126 -675 0
-127 -128 676 0
127 -676 0
128 -676 0
-127 -129 677 0
127 -677 0
129 -677 0
-127 -130 678 0
127 -678 0
130 -678 0
-127 -131 679 0
127 -679 0
131 -679 0
-127 -132 680 0
127 -680 0
132 -680 0
-128 -129 681 0
128 -681 0
129 -681 0
-128 -130 682 0
128 -682 0
130 -682 0
-128 -131 683 0
128 -683 0
131 -683 0
-128 -132 684 0
128 -684 0
132 -684 0
-129 -130 685 0
129 -685 0
130 -685 0
-129 -131 686 0
129 -686 0
131 -686 0
-129 -132 687 0
129 -687 0
132 -687 0
-130 -131 688 0
130 -688 0
131 -688 0
-130 -132 689 0
130 -689 0
132 -689 0
-131 -132 690 0
131 -690 0
132 -690 0
-133 -134 691 0
133 -691 0
134 -691 0
-133 -135 692 0
133 -692 0
135 -692 0
-133 -136 693 0
133 -693 0
136 -693 0
-133 -137 694 0
133 -694 0
137 -694 0
-133 -138 695 0
133 -695 0
138 -695 0
-134 -135 696 0
134 -696 0
135 -696 0
-134 -136 697 0
134 -697 0
136 -697 0
-134 -137 698 0
134 -698 0
137 -698 0
-134 -138 699 0
134 -699 0
138 -699 0
-135 -136 700 0
135 -700 0
136 -700 0
-135 -137 701 0
135 -701 0
137 -701 0
-135 -138 702 0
135 -702 0
138 -702 0
-136 -137 703 0
136 -703 0
137 -703 0
-136 -138 704 0
136 -704 0
138 -704 0
-137 -138 705 0
137 -705 0
138 -705 0
-139 -140 706 0
139 -706 0
140 -706 0
-139 -141 707 0
139 -707 0
141 -707 0
-139 -142 708 0
139 -708 0
142 -708 0
-139 -143 709 0
139 -709 0
143 -709 0
-139 -144 710 0
139 -710 0
144 -710 0
-140 -141 711 0
140 -711 0
141 -711 0
-140 -142 712 0
140 -712 0
142 -712 0
-140 -143 713 0
140 -713 0
143 -713 0
-140 -144 714 0
140 -714 0
144 -714 0
-141 -142 715 0
141 -715 0
142 -715 0
-141 -143 716 0
141 -716 0
143 -716 0
-141 -144 717 0
141 -717 0
144 -717 0
-142 -143 718 0
142 -718 0
143 -718 0
-142 -144 719 0
142 -719 0
144 -719 0
-143 -144 720 0
143 -720 0
144 -720 0
-145 -146 721 0
145 -721 0
146 -721 0
-145 -147 722 0
145 -722 0
147 -722 0
-145 -148 723 0
145 -723 0
148 -723 0
-145 -149 724 0
145 -724 0
149 -724 0
-145 -150 725 0
145 -725 0
150 -725 0
-146 -147 726 0
146 -726 0
147 -726 0
-146 -148 727 0
146 -727 0
148 -727 0
-146 -149 728 0
146 -728 0
149 -728 0
-146 -150 729 0
146 -729 0
150 -729 0
-147 -148 730 0
147 -730 0
148 -730 0
-147 -149 731 0
147 -731 0
149 -731 0
-147 -150 732 0
147 -732 0
150 -732 0
-148 -149 733 0
148 -733 0
149 -733 0
-148 -150 734 0
148 -734 0
150 -734 0
-149 -150 735 0
149 -735 0
150 -735 0
-151 -152 736 0
151 -736 0
152 -736 0
-151 -153 737 0
151 -737 0
153 -737 0
-151 -154 738 0
151 -738 0
154 -738 0
-151 -155 739 0
151 -739 0
155 -739 0
-151 -156 740 0
151 -740 0
156 -740 0
-152 -153 741 0
152 -741 0
153 -741 0
-152 -154 742 0
152 -742 0
154 -742 0
-152 -155 743 0
152 -743 0
155 -743 0
-152 -156 744 0
152 -744 0
156 -744 0
-153 -154 745 0
153 -745 0
154 -745 0
-153 -155 746 0
153 -746 0
155 -746 0
-153 -156 747 0
153 -747 0
156 -747 0
-154 -155 748 0
154 -748 0
155 -748 0
-154 -156 749 0
154 -749 0
156 -749 0
-155 -156 750 0
155 -750 0
156 -750 0
-157 -158 751 0
157 -751 0
158 -751 0
-157 -159 752 0
157 -752 0
159 -752 0
-157 -160 753 0
157 -753 0
160 -753 0
-157 -161 754 0
157 -754 0
161 -754 0
-157 -162 755 0
157 -755 0
162 -755 0
-158 -159 756 0
158 -756 0
159 -756 0
-158 -160 757 0
158 -757 0
160 -757 0
-158 -161 758 0
158 -758 0
161 -758 0
-158 -162 759 0
158 -759 0
162 -759 0
-159 -160 760 0
159 -760 0
160 -760 0
-159 -161 761 0
159 -761 0
161 -761 0
-159 -162 762 0
159 -762 0
162 -762 0
-160 -161 763 0
160 -763 0
161 -763 0
-160 -162 764 0
160 -764 0
162 -764 0
-161 -162 765 0
161 -765 0
162 -765 0
-163 -164 766 0
163 -766 0
164 -766 0
-163 -165 767 0
163 -767 0
165 -767 0
-163 -166 768 0
163 -768 0
166 -768 0
-163 -167 769 0
163 -769 0
167 -769 0
-163 -168 770 0
163 -770 0
168 -770 0
-164 -165 771 0
164 -771 0
165 -771 0
-164 -166 772 0
164 -772 0
166 -772 0
-164 -167 773 0
164 -773 0
167 -773 0
-164 -168 774 0
164 -774 0
168 -774 0
-165 -166 775 0
165 -775 0
166 -775 0
-165 -167 776 0
165 -776 0
167 -776 0
-165 -168 777 0
165 -777 0
168 -777 0
-166 -167 778 0
166 -778 0
167 -778 0
-166 -168 779 0
166 -779 0
168 -779 0
-167 -168 780 0
167 -780 0
168 -780 0
-169 -170 781 0
169 -781 0
170 -781 0
-169 -171 782 0
169 -782 0
171 -782 0
-169 -172 783 0
169 -783 0
172 -783 0
-169 -173 784 0
169 -784 0
173 -784 0
-169 -174 785 0
169 -785 0
174 -785 0
-170 -171 786 0
170 -786 0
171 -786 0
-170 -172 787 0
170 -787 0
172 -787 0
-170 -173 788 0
170 -788 0
173 -788 0
-170 -174 789 0
170 -789 0
174 -789 0
-171 -172 790 0
171 -790 0
172 -790 0
-171 -173 791 0
171 -791 0
173 -791 0
-171 -174 792 0
171 -792 0
174 -792 0
-172 -173 793 0
172 -793 0
173 -793 0
-172 -174 794 0
172 -794 0
174 -794 0
-173 -174 795 0
173 -795 0
174 -795 0
-175 -176 796 0
175 -796 0
176 -796 0
-175 -177 797 0
175 -797 0
177 -797 0
-175 -178 798 0
175 -798 0
178 -798 0
-175 -179 799 0
175 -799 0
179 -799 0
-175 -180 800 0
175 -800 0
180 -800 0
-176 -177 801 0
176 -801 0
177 -801 0
-176 -178 802 0
176 -802 0
178 -802 0
-176 -179 803 0
176 -803 0
179 -803 0
-176 -180 804 0
176 -804 0
180 -804 0
-177 -178 805 0
177 -805 0
178 -805 0
-177 -179 806 0
177 -806 0
179 -806 0
-177 -180 807 0
177 -807 0
180 -807 0
-178 -179 808 0
178 -808 0
179 -808 0
-178 -180 809 0
178 -809 0
180 -809 0
-179 -180 810 0
179 -810 0
180 -810 0
-181 -182 811 0
181 -811 0
182 -811 0
-181 -183 812 0
181 -812 0
183 -812 0
-181 -184 813 0
181 -813 0
184 -813 0
-181 -185 814 0
181 -814 0
185 -814 0
-181 -186 815 0
181 -815 0
186 -815 0
-182 -183 816 0
182 -816 0
183 -816 0
-182 -184 817 0
182 -817 0
184 -817 0
-182 -185 818 0
182 -818 0
185 -818 0
-182 -186 819 0
182 -819 0
186 -819 0
-183 -184 820 0
183 -820 0
184 -820 0
-183 -185 821 0
183 -821 0
185 -821 0
-183 -186 822 0
183 -822 0
186 -822 0
-184 -185 823 0
184 -823 0
185 -823 0
-184 -186 824 0
184 -824 0
186 -824 0
-185 -186 825 0
185 -825 0
186 -825 0
-187 -188 826 0
187 -826 0
188 -826 0
-187 -189 827 0
187 -827 0
189 -827 0
-187 -190 828 0
187 -828 0
190 -828 0
-187 -191 829 0
187 -829 0
191 -829 0
-187 -192 830 0
187 -830 0
192 -830 0
-188 -189 831 0
188 -831 0
189 -831 0
-188 -190 832 0
188 -832 0
190 -832 0
-188 -191 833 0
188 -833 0
191 -833 0
-188 -192 834 0
188 -834 0
192 -834 0
-189 -190 835 0
189 -835 0
190 -835 0
-189 -191 836 0
189 -836 0
191 -836 0
-189 -192 837 0
189 -837 0
192 -837 0
-190 -191 838 0
190 -838 0
191 -838 0
-190 -192 839 0
190 -839 0
192 -839 0
-191 -192 840 0
191 -840 0
192 -840 0
-193 -194 841 0
193 -841 0
194 -841 0
-193 -195 842 0
193 -842 0
195 -842 0
-193 -196 843 0
193 -843 0
196 -843 0
-193 -197 844 0
193 -844 0
197 -844 0
-193 -198 845 0
193 -845 0
198 -845 0
-194 -195 846 0
194 -846 0
195 -846 0
-194 -196 847 0
194 -847 0
196 -847 0
-194 -197 848 0
194 -848 0
197 -848 0
-194 -198 849 0
194 -849 0
198 -849 0
-195 -196 850 0
195 -850 0
196 -850 0
-195 -197 851 0
195 -851 0
197 -851 0
-195 -198 852 0
195 -852 0
198 -852 0
-196 -197 853 0
196 -853 0
197 -853 0
-196 -198 854 0
196 -854 0
198 -854 0
-197 -198 855 0
197 -855 0
198 -855 0
-199 -200 856 0
199 -856 0
200 -856 0
-199 -201 857 0
199 -857 0
201 -857 0
-199 -202 858 0
199 -858 0
202 -858 0
-199 -203 859 0
199 -859 0
203 -859 0
-199 -204 860 0
199 -860 0
204 -860 0
-200 -201 861 0
200 -861 0
201 -861 0
-200 -202 862 0
200 -862 0
202 -862 0
-200 -203 863 0
200 -863 0
203 -863 0
-200 -204 864 0
200 -864 0
204 -864 0
-201 -202 865 0
201 -865 0
202 -865 0
-201 -203 866 0
201 -866 0
203 -866 0
-201 -204 867 0
201 -867 0
204 -867 0
-202 -203 868 0
202 -868 0
203 -868 0
-202 -204 869 0
202 -869 0
204 -869 0
-203 -204 870 0
203 -870 0
204 -870 0
-205 -206 871 0
205 -871 0
206 -871 0
-205 -207 872 0
205 -872 0
207 -872 0
-205 -208 873 0
205 -873 0
208 -873 0
-205 -209 874 0
205 -874 0
209 -874 0
-205 -210 875 0
205 -875 0
210 -875 0
-206 -207 876 0
206 -876 0
207 -876 0
-206 -208 877 0
206 -877 0
208 -877 0
-206 -209 878 0
206 -878 0
209 -878 0
-206 -210 879 0
206 -879 0
210 -879 0
-207 -208 880 0
207 -880 0
208 -880 0
-207 -209 881 0
207 -881 0
209 -881 0
-207 -210 882 0
207 -882 0
210 -882 0
-208 -209 883 0
208 -883 0
209 -883 0
-208 -210 884 0
208 -884 0
210 -884 0
-209 -210 885 0
209 -885 0
210 -885 0
-211 -212 886 0
211 -886 0
212 -886 0
-211 -213 887 0
211 -887 0
213 -887 0
-211 -214 888 0
211 -888 0
214 -888 0
-211 -215 889 0
211 -889 0
215 -889 0
-211 -216 890 0
211 -890 0
216 -890 0
-212 -213 891 0
212 -891 0
213 -891 0
-212 -214 892 0
212 -892 0
214 -892 0
-212 -215 893 0
212 -893 0
215 -893 0
-212 -216 894 0
212 -894 0
216 -894 0
-213 -214 895 0
213 -895 0
214 -895 0
-213 -215 896 0
213 -896 0
215 -896 0
-213 -216 897 0
213 -897 0
216 -897 0
-214 -215 898 0
214 -898 0
215 -898 0
-214 -216 899 0
214 -899 0
216 -899 0
-215 -216 900 0
215 -900 0
216 -900 0
-217 -218 901 0
217 -901 0
218 -901 0
-217 -219 902 0
217 -902 0
219 -902 0
-217 -220 903 0
217 -903 0
220 -903 0
-217 -221 904 0
217 -904 0
221 -904 0
-217 -222 905 0
217 -905 0
222 -905 0
-218 -219 906 0
218 -906 0
219 -906 0
-218 -220 907 0
218 -907 0
220 -907 0
-218 -221 908 0
218 -908 0
221 -908 0
-218 -222 909 0
218 -909 0
222 -909 0
-219 -220 910 0
219 -910 0
220 -910 0
-219 -221 911 0
219 -911 0
221 -911 0
-219 -222 912 0
219 -912 0
222 -912 0
-220 -221 913 0
220 -913 0
221 -913 0
-220 -222 914 0
220 -914 0
222 -914 0
-221 -222 915 0
221 -915 0
222 -915 0
-223 -224 916 0
223 -916 0
224 -916 0
-223 -225 917 0
223 -917 0
225 -917 0
-223 -226 918 0
223 -918 0
226 -918 0
-223 -227 919 0
223 -919 0
227 -919 0
-223 -228 920 0
223 -920 0
228 -920 0
-224 -225 921 0
224 -921 0
225 -921 0
-224 -226 922 0
224 -922 0
226 -922 0
-224 -227 923 0
224 -923 0
227 -923 0
-224 -228 924 0
224 -924 0
228 -924 0
-225 -226 925 0
225 -925 0
226 -925 0
-225 -227 926 0
225 -926 0
227 -926 0
-225 -228 927 0
225 -927 0
228 -927 0
-226 -227 928 0
226 -928 0
227 -928 0
-226 -228 929 0
226 -929 0
228 -929 0
-227 -228 930 0
227 -930 0
228 -930 0
-229 -230 931 0
229 -931 0
230 -931 0
-229 -231 932 0
229 -932 0
231 -932 0
-229 -232 933 0
229 -933 0
232 -933 0
-229 -233 934 0
229 -934 0
233 -934 0
-229 -234 935 0
229 -935 0
234 -935 0
-230 -231 936 0
230 -936 0
231 -936 0
-230 -232 937 0
230 -937 0
232 -937 0
-230 -233 938 0
230 -938 0
233 -938 0
-230 -234 939 0
230 -939 0
234 -939 0
-231 -232 940 0
231 -940 0
232 -940 0
-231 -233 941 0
231 -941 0
233 -941 0
-231 -234 942 0
231 -942 0
234 -942 0
-232 -233 943 0
232 -943 0
233 -943 0
-232 -234 944 0
232 -944 0
234 -944 0
-233 -234 945 0
233 -945 0
234 -945 0
-235 -236 946 0
235 -946 0
236 -946 0
-235 -237 947 0
235 -947 0
237 -947 0
-235 -238 948 0
235 -948 0
238 -948 0
-235 -239 949 0
235 -949 0
239 -949 0
-235 -240 950 0
235 -950 0
240 -950 0
-236 -237 951 0
236 -951 0
237 -951 0
-236 -238 952 0
236 -952 0
238 -952 0
-236 -239 953 0
236 -953 0
239 -953 0
-236 -240 954 0
236 -954 0
240 -954 0
-237 -238 955 0
237 -955 0
238 -955 0
-237 -239 956 0
237 -956 0
239 -956 0
-237 -240 957 0
237 -957 0
240 -957 0
-238 -239 958 0
238 -958 0
239 -958 0
-238 -240 959 0
238 -959 0
240 -959 0
-239 -240 960 0
239 -960 0
240 -960 0
-241 -242 961 0
241 -961 0
242 -961 0
-241 -243 962 0
241 -962 0
243 -962 0
-241 -244 963 0
241 -963 0
244 -963 0
-241 -245 964 0
241 -964 0
245 -964 0
-241 -246 965 0
241 -965 0
246 -965 0
-242 -243 966 0
242 -966 0
243 -966 0
-242 -244 967 0
242 -967 0
244 -967 0
-242 -245 968 0
242 -968 0
245 -968 0
-242 -246 969 0
242 -969 0
246 -969 0
-243 -244 970 0
243 -970 0
244 -970 0
-243 -245 971 0
243 -971 0
245 -971 0
-243 -246 972 0
243 -972 0
246 -972 0
-244 -245 973 0
244 -973 0
245 -973 0
-244 -246 974 0
244 -974 0
246 -974 0
-245 -246 975 0
245 -975 0
246 -975 0
-247 -248 976 0
247 -976 0
248 -976 0
-247 -249 977 0
247 -977 0
249 -977 0
-247 -250 978 0
247 -978 0
250 -978 0
-247 -251 979 0
247 -979 0
251 -979 0
-247 -252 980 0
247 -980 0
252 -980 0
-248 -249 981 0
248 -981 0
249 -981 0
-248 -250 982 0
248 -982 0
250 -982 0
-248 -251 983 0
248 -983 0
251 -983 0
-248 -252 984 0
248 -984 0
252 -984 0
-249 -250 985 0
249 -985 0
250 -985 0
-249 -251 986 0
249 -986 0
251 -986 0
-249 -252 987 0
249 -987 0
252 -987 0
-250 -251 988 0
250 -988 0
251 -988 0
-250 -252 989 0
250 -989 0
252 -989 0
-251 -252 990 0
251 -990 0
252 -990 0
-253 -254 991 0
253 -991 0
254 -991 0
-253 -255 992 0
253 -992 0
255 -992 0
-253 -256 993 0
253 -993 0
256 -993 0
-253 -257 994 0
253 -994 0
257 -994 0
-253 -258 995 0
253 -995 0
258 -995 0
-254 -255 996 0
254 -996 0
255 -996 0
-254 -256 997 0
254 -997 0
256 -997 0
-254 -257 998 0
254 -998 0
257 -998 0
-254 -258 999 0
254 -999 0
258 -999 0
-255 -256 1000 0
255 -1000 0
256 -1000 0
-255 -257 1001 0
255 -1001 0
257 -1001 0
-255 -258 1002 0
255 -1002 0
258 -1002 0
-256 -257 1003 0
256 -1003 0
257 -1003 0
-256 -258 1004 0
256 -1004 0
258 -1004 0
-257 -258 1005 0
257 -1005 0
258 -1005 0
-259 -260 1006 0
259 -1006 0
260 -1006 0
-259 -261 1007 0
259 -1007 0
261 -1007 0
-259 -262 1008 0
259 -1008 0
262 -1008 0
-259 -263 1009 0
259 -1009 0
263 -1009 0
-259 -264 1010 0
259 -1010 0
264 -1010 0
-260 -261 1011 0
260 -1011 0
261 -1011 0
-260 -262 1012 0
260 -1012 0
262 -1012 0
-260 -263 1013 0
260 -1013 0
263 -1013 0
-260 -264 1014 0
260 -1014 0
264 -1014 0
-261 -262 1015 0
261 -1015 0
262 -1015 0
-261 -263 1016 0
261 -1016 0
263 -1016 0
-261 -264 1017 0
261 -1017 0
264 -1017 0
-262 -263 1018 0
262 -1018 0
263 -1018 0
-262 -264 1019 0
262 -1019 0
264 -1019 0
-263 -264 1020 0
263 -1020 0
264 -1020 0
-265 -266 1021 0
265 -1021 0
266 -1021 0
-265 -267 1022 0
265 -1022 0
267 -1022 0
-265 -268 1023 0
265 -1023 0
268 -1023 0
-265 -269 1024 0
265 -1024 0
269 -1024 0
-265 -270 1025 0
265 -1025 0
270 -1025 0
-266 -267 1026 0
266 -1026 0
267 -1026 0
-266 -268 1027 0
266 -1027 0
268 -1027 0
-266 -269 1028 0
266 -1028 0
269 -1028 0
-266 -270 1029 0
266 -1029 0
270 -1029 0
-267 -268 1030 0
267 -1030 0
268 -1030 0
-267 -269 1031 0
267 -1031 0
269 -1031 0
-267 -270 1032 0
267 -1032 0
270 -1032 0
-268 -269 1033 0
268 -1033 0
269 -1033 0
-268 -270 1034 0
268 -1034 0
270 -1034 0
-269 -270 1035 0
269 -1035 0
270 -1035 0
-271 -272 1036 0
271 -1036 0
272 -1036 0
-271 -273 1037 0
271 -1037 0
273 -1037 0
-271 -274 1038 0
271 -1038 0
274 -1038 0
-271 -275 1039 0
271 -1039 0
275 -1039 0
-271 -276 1040 0
271 -1040 0
276 -1040 0
-272 -273 1041 0
272 -1041 0
273 -1041 0
-272 -274 1042 0
272 -1042 0
274 -1042 0
-272 -275 1043 0
272 -1043 0
275 -1043 0
-272 -276 1044 0
272 -1044 0
276 -1044 0
-273 -274 1045 0
273 -1045 0
274 -1045 0
-273 -275 1046 0
273 -1046 0
275 -1046 0
-273 -276 1047 0
273 -1047 0
276 -1047 0
-274 -275 1048 0
274 -1048 0
275 -1048 0
-274 -276 1049 0
274 -1049 0
276 -1049 0
-275 -276 1050 0
275 -1050 0
276 -1050 0
-277 -278 1051 0
277 -1051 0
278 -1051 0
-277 -279 1052 0
277 -1052 0
279 -1052 0
-277 -280 1053 0
277 -1053 0
280 -1053 0
-277 -281 1054 0
277 -1054 0
281 -1054 0
-277 -282 1055 0
277 -1055 0
282 -1055 0
-278 -279 1056 0
278 -1056 0
279 -1056 0
-278 -280 1057 0
278 -1057 0
280 -1057 0
-278 -281 1058 0
278 -1058 0
281 -1058 0
-278 -282 1059 0
278 -1059 0
282 -1059 0
-279 -280 1060 0
279 -1060 0
280 -1060 0
-279 -281 1061 0
279 -1061 0
281 -1061 0
-279 -282 1062 0
279 -1062 0
282 -1062 0
-280 -281 1063 0
280 -1063 0
281 -1063 0
-280 -282 1064 0
280 -1064 0
282 -1064 0
-281 -282 1065 0
281 -1065 0
282 -1065 0
-283 -284 1066 0
283 -1066 0
284 -1066 0
-283 -285 1067 0
283 -1067 0
285 -1067 0
-283 -286 1068 0
283 -1068 0
286 -1068 0
-283 -287 1069 0
283 -1069 0
287 -1069 0
-283 -288 1070 0
283 -1070 0
288 -1070 0
-284 -285 1071 0
284 -1071 0
285 -1071 0
-284 -286 1072 0
284 -1072 0
286 -1072 0
-284 -287 1073 0
284 -1073 0
287 -1073 0
-284 -288 1074 0
284 -1074 0
288 -1074 0
-285 -286 1075 0
285 -1075 0
286 -1075 0
-285 -287 1076 0
285 -1076 0
287 -1076 0
-285 -288 1077 0
285 -1077 0
288 -1077 0
-286 -287 1078 0
286 -1078 0
287 -1078 0
-286 -288 1079 0
286 -1079 0
288 -1079 0
-287 -288 1080 0
287 -1080 0
288 -1080 0
-289 -290 1081 0
289 -1081 0
290 -1081 0
-289 -291 1082 0
289 -1082 0
291 -1082 0
-289 -292 1083 0
289 -1083 0
292 -1083 0
-289 -293 1084 0
289 -1084 0
293 -1084 0
-289 -294 1085 0
289 -1085 0
294 -1085 0
-290 -291 1086 0
290 -1086 0
291 -1086 0
-290 -292 1087 0
290 -1087 0
292 -1087 0
-290 -293 1088 0
290 -1088 0
293 -1088 0
-290 -294 1089 0
290 -1089 0
294 -1089 0
-291 -292 1090 0
291 -1090 0
292 -1090 0
-291 -293 1091 0
291 -1091 0
293 -1091 0
-291 -294 1092 0
291 -1092 0
294 -1092 0
-292 -293 1093 0
292 -1093 0
293 -1093 0
-292 -294 1094 0
292 -1094 0
294 -1094 0
-293 -294 1095 0
293 -1095 0
294 -1095 0
-295 -296 1096 0
295 -1096 0
296 -1096 0
-295 -297 1097 0
295 -1097 0
297 -1097 0
-295 -298 1098 0
295 -1098 0
298 -1098 0
-295 -299 1099 0
295 -1099 0
299 -1099 0
-295 -300 1100 0
295 -1100 0
300 -1100 0
-296 -297 1101 0
296 -1101 0
297 -1101 0
-296 -298 1102 0
296 -1102 0
298 -1102 0
-296 -299 1103 0
296 -1103 0
299 -1103 0
-296 -300 1104 0
296 -1104 0
300 -1104 0
-297 -298 1105 0
297 -1105 0
298 -1105 0
-297 -299 1106 0
297 -1106 0
299 -1106 0
-297 -300 1107 0
297 -1107 0
300 -1107 0
-298 -299 1108 0
298 -1108 0
299 -1108 0
-298 -300 1109 0
298 -1109 0
300 -1109 0
-299 -300 1110 0
299 -1110 0
300 -1110 0
-301 -302 1111 0
301 -1111 0
302 -1111 0
-301 -303 1112 0
301 -1112 0
303 -1112 0
-301 -304 1113 0
301 -1113 0
304 -1113 0
-301 -305 1114 0
301 -1114 0
305 -1114 0
-301 -306 1115 0
301 -1115 0
306 -1115 0
-302 -303 1116 0
302 -1116 0
303 -1116 0
-302 -304 1117 0
302 -1117 0
304 -1117 0
-302 -305 1118 0
302 -1118 0
305 -1118 0
-302 -306 1119 0
302 -1119 0
306 -1119 0
-303 -304 1120 0
303 -1120 0
304 -1120 0
-303 -305 1121 0
303 -1121 0
305 -1121 0
-303 -306 1122 0
303 -1122 0
306 -1122 0
-304 -305 1123 0
304 -1123 0
305 -1123 0
-304 -306 1124 0
304 -1124 0
306 -1124 0
-305 -306 1125 0
305 -1125 0
306 -1125 0
-307 -308 1126 0
307 -1126 0
308 -1126 0
-307 -309 1127 0
307 -1127 0
309 -1127 0
-307 -310 1128 0
307 -1128 0
310 -1128 0
-307 -311 1129 0
307 -1129 0
311 -1129 0
-307 -312 1130 0
307 -1130 0
312 -1130 0
-308 -309 1131 0
308 -1131 0
309 -1131 0
-308 -310 1132 0
308 -1132 0
310 -1132 0
-308 -311 1133 0
308 -1133 0
311 -1133 0
-308 -312 1134 0
308 -1134 0
312 -1134 0
-309 -310 1135 0
309 -1135 0
310 -1135 0
-309 -311 1136 0
309 -1136 0
311 -1136 0
-309 -312 1137 0
309 -1137 0
312 -1137 0
-310 -311 1138 0
310 -1138 0
311 -1138 0
-310 -312 1139 0
310 -1139 0
312 -1139 0
-311 -312 1140 0
311 -1140 0
312 -1140 0
-313 -314 1141 0
313 -1141 0
314 -1141 0
-313 -315 1142 0
313 -1142 0
315 -1142 0
-313 -316 1143 0
313 -1143 0
316 -1143 0
-313 -317 1144 0
313 -1144 0
317 -1144 0
-313 -318 1145 0
313 -1145 0
318 -1145 0
-314 -315 1146 0
314 -1146 0
315 -1146 0
-314 -316 1147 0
314 -1147 0
316 -1147 0
-314 -317 1148 0
314 -1148 0
317 -1148 0
-314 -318 1149 0
314 -1149 0
318 -1149 0
-315 -316 1150 0
315 -1150 0
316 -1150 0
-315 -317 1151 0
315 -1151 0
317 -1151 0
-315 -318 1152 0
315 -1152 0
318 -1152 0
-316 -317 1153 0
316 -1153 0
317 -1153 0
-316 -318 1154 0
316 -1154 0
318 -1154 0
-317 -318 1155 0
317 -1155 0
318 -1155 0
-319 -320 1156 0
319 -1156 0
320 -1156 0
-319 -321 1157 0
319 -1157 0
321 -1157 0
-319 -322 1158 0
319 -1158 0
322 -1158 0
-319 -323 1159 0
319 -1159 0
323 -1159 0
-319 -324 1160 0
319 -1160 0
324 -1160 0
-320 -321 1161 0
320 -1161 0
321 -1161 0
-320 -322 1162 0
320 -1162 0
322 -1162 0
-320 -323 1163 0
320 -1163 0
323 -1163 0
-320 -324 1164 0
320 -1164 0
324 -1164 0
-321 -322 1165 0
321 -1165 0
322 -1165 0
-321 -323 1166 0
321 -1166 0
323 -1166 0
-321 -324 1167 0
321 -1167 0
324 -1167 0
-322 -323 1168 0
322 -1168 0
323 -1168 0
-322 -324 1169 0
322 -1169 0
324 -1169 0
-323 -324 1170 0
323 -1170 0
324 -1170 0
-325 -326 1171 0
325 -1171 0
326 -1171 0
-325 -327 1172 0
325 -1172 0
327 -1172 0
-325 -328 1173 0
325 -1173 0
328 -1173 0
-325 -329 1174 0
325 -1174 0
329 -1174 0
-325 -330 1175 0
325 -1175 0
330 -1175 0
-326 -327 1176 0
326 -1176 0
327 -1176 0
-326 -328 1177 0
326 -1177 0
328 -1177 0
-326 -329 1178 0
326 -1178 0
329 -1178 0
-326 -330 1179 0
326 -1179 0
330 -1179 0
-327 -328 1180 0
327 -1180 0
328 -1180 0
-327 -329 1181 0
327 -1181 0
329 -1181 0
-327 -330 1182 0
327 -1182 0
330 -1182 0
-328 -329 1183 0
328 -1183 0
329 -1183 0
-328 -330 1184 0
328 -1184 0
330 -1184 0
-329 -330 1185 0
329 -1185 0
330 -1185 0
-331 -332 1186 0
331 -1186 0
332 -1186 0
-331 -333 1187 0
331 -1187 0
333 -1187 0
-331 -334 1188 0
331 -1188 0
334 -1188 0
-331 -335 1189 0
331 -1189 0
335 -1189 0
-331 -336 1190 0
331 -1190 0
336 -1190 0
-332 -333 1191 0
332 -1191 0
333 -1191 0
-332 -334 1192 0
332 -1192 0
334 -1192 0
-332 -335 1193 0
332 -1193 0
335 -1193 0
-332 -336 1194 0
332 -1194 0
336 -1194 0
-333 -334 1195 0
333 -1195 0
334 -1195 0
-333 -335 1196 0
333 -1196 0
335 -1196 0
-333 -336 1197 0
333 -1197 0
336 -1197 0
-334 -335 1198 0
334 -1198 0
335 -1198 0
-334 -336 1199 0
334 -1199 0
336 -1199 0
-335 -336 1200 0
335 -1200 0
336 -1200 0
-337 -338 1201 0
337 -1201 0
338 -1201 0
-337 -339 1202 0
337 -1202 0
339 -1202 0
-337 -340 1203 0
337 -1203 0
340 -1203 0
-337 -341 1204 0
337 -1204 0
341 -1204 0
-337 -342 1205 0
337 -1205 0
342 -1205 0
-338 -339 1206 0
338 -1206 0
339 -1206 0
-338 -340 1207 0
338 -1207 0
340 -1207 0
-338 -341 1208 0
338 -1208 0
341 -1208 0
-338 -342 1209 0
338 -1209 0
342 -1209 0
-339 -340 1210 0
339 -1210 0
340 -1210 0
-339 -341 1211 0
339 -1211 0
341 -1211 0
-339 -342 1212 0
339 -1212 0
342 -1212 0
-340 -341 1213 0
340 -1213 0
341 -1213 0
-340 -342 1214 0
340 -1214 0
342 -1214 0
-341 -342 1215 0
341 -1215 0
342 -1215 0
-343 -344 1216 0
343 -1216 0
344 -1216 0
-343 -345 1217 0
343 -1217 0
345 -1217 0
-343 -346 1218 0
343 -1218 0
346 -1218 0
-343 -347 1219 0
343 -1219 0
347 -1219 0
-343 -348 1220 0
343 -1220 0
348 -1220 0
-344 -345 1221 0
344 -1221 0
345 -1221 0
-344 -346 1222 0
344 -1222 0
346 -1222 0
-344 -347 1223 0
344 -1223 0
347 -1223 0
-344 -348 1224 0
344 -1224 0
348 -1224 0
-345 -346 1225 0
345 -1225 0
346 -1225 0
-345 -347 1226 0
345 -1226 0
347 -1226 0
-345 -348 1227 0
345 -1227 0
348 -1227 0
-346 -347 1228 0
346 -1228 0
347 -1228 0
-346 -348 1229 0
346 -1229 0
348 -1229 0
-347 -348 1230 0
347 -1230 0
348 -1230 0
-349 -350 1231 0
349 -1231 0
350 -1231 0
-349 -351 1232 0
349 -1232 0
351 -1232 0
-349 -352 1233 0
349 -1233 0
352 -1233 0
-349 -353 1234 0
349 -1234 0
353 -1234 0
-349 -354 1235 0
349 -1235 0
354 -1235 0
-350 -351 1236 0
350 -1236 0
351 -1236 0
-350 -352 1237 0
350 -1237 0
352 -1237 0
-350 -353 1238 0
350 -1238 0
353 -1238 0
-350 -354 1239 0
350 -1239 0
354 -1239 0
-351 -352 1240 0
351 -1240 0
352 -1240 0
-351 -353 1241 0
351 -1241 0
353 -1241 0
-351 -354 1242 0
351 -1242 0
354 -1242 0
-352 -353 1243 0
352 -1243 0
353 -1243 0
-352 -354 1244 0
352 -1244 0
354 -1244 0
-353 -354 1245 0
353 -1245 0
354 -1245 0
-355 -356 1246 0
355 -1246 0
356 -1246 0
-355 -357 1247 0
355 -1247 0
357 -1247 0
-355 -358 1248 0
355 -1248 0
358 -1248 0
-355 -359 1249 0
355 -1249 0
359 -1249 0
-355 -360 1250 0
355 -1250 0
360 -1250 0
-356 -357 1251 0
356 -1251 0
357 -1251 0
-356 -358 1252 0
356 -1252 0
358 -1252 0
-356 -359 1253 0
356 -1253 0
359 -1253 0
-356 -360 1254 0
356 -1254 0
360 -1254 0
-357 -358 1255 0
357 -1255 0
358 -1255 0
-357 -359 1256 0
357 -1256 0
359 -1256 0
-357 -360 1257 0
357 -1257 0
360 -1257 0
-358 -359 1258 0
358 -1258 0
359 -1258 0
-358 -360 1259 0
358 -1259 0
360 -1259 0
-359 -360 1260 0
359 -1260 0
360 -1260 0
-253 -259 -277 0
-253 -259 -283 0
-253 -277 -283 0
-259 -277 -283 0
253 259 277 0
253 259 283 0
253 277 283 0
259 277 283 0
-254 -260 -278 0
-254 -260 -284 0
-254 -278 -284 0
-260 -278 -284 0
254 260 278 0
254 260 284 0
254 278 284 0
260 278 284 0
-991 -1006 0
-991 -1051 0
-991 -1066 0
-1006 -1051 0
-1006 -1066 0
-1051 -1066 0
991 1006 1051 1066 0
-1 -7 -97 -103 -205 0
-1 -7 -97 -103 -211 0
-1 -7 -97 -103 -337 0
-1 -7 -97 -103 -343 0
-1 -7 -97 -205 -211 0
-1 -7 -97 -205 -337 0
-1 -7 -97 -205 -343 0
-1 -7 -97 -211 -337 0
-1 -7 -97 -211 -343 0
-1 -7 -97 -337 -343 0
-1 -7 -103 -205 -211 0
-1 -7 -103 -205 -337 0
-1 -7 -103 -205 -343 0
-1 -7 -103 -211 -337 0
-1 -7 -103 -211 -343 0
-1 -7 -103 -337 -343 0
-1 -7 -205 -211 -337 0
-1 -7 -205 -211 -343 0
-1 -7 -205 -337 -343 0
-1 -7 -211 -337 -343 0
-1 -97 -103 -205 -211 0
-1 -97 -103 -205 -337 0
-1 -97 -103 -205 -343 0
-1 -97 -103 -211 -337 0
-1 -97 -103 -211 -343 0
-1 -97 -103 -337 -343 0
-1 -97 -205 -211 -337 0
-1 -97 -205 -211 -343 0
-1 -97 -205 -337 -343 0
-1 -97 -211 -337 -343 0
-1 -103 -205 -211 -337 0
-1 -103 -205 -211 -343 0
-1 -103 -205 -337 -343 0
-1 -103 -211 -337 -343 0
-1 -205 -211 -337 -343 0
-7 -97 -103 -205 -211 0
-7 -97 -103 -205 -337 0
-7 -97 -103 -205 -343 0
-7 -97 -103 -211 -337 0
-7 -97 -103 -211 -343 0
-7 -97 -103 -337 -343 0
-7 -97 -205 -211 -337 0
-7 -97 -205 -211 -343 0
-7 -97 -205 -337 -343 0
-7 -97 -211 -337 -343 0
-7 -103 -205 -211 -337 0
-7 -103 -205 -211 -343 0
-7 -103 -205 -337 -343 0
-7 -103 -211 -337 -343 0
-7 -205 -211 -337 -343 0
-97 -103 -205 -211 -337 0
-97 -103 -205 -211 -343 0
-97 -103 -205 -337 -343 0
-97 -103 -211 -337 -343 0
-97 -205 -211 -337 -343 0
-103 -205 -211 -337 -343 0
1 7 97 103 205 0
1 7 97 103 211 0
1 7 97 103 337 0
1 7 97 103 343 0
1 7 97 205 211 0
1 7 97 205 337 0
1 7 97 205 343 0
1 7 97 211 337 0
1 7 97 211 343 0
1 7 97 337 343 0
1 7 103 205 211 0
1 7 103 205 337 0
1 7 103 205 343 0
1 7 103 211 337 0
1 7 103 211 343 0
1 7 103 337 343 0
1 7 205 211 337 0
1 7 205 211 343 0
1 7 205 337 343 0
1 7 211 337 343 0
1 97 103 205 211 0
1 97 103 205 337 0
1 97 103 205 343 0
1 97 103 211 337 0
1 97 103 211 343 0
1 97 103 337 343 0
1 97 205 211 337 0
1 97 205 211 343 0
1 97 205 337 343 0
1 97 211 337 343 0
1 103 205 211 337 0
1 103 205 211 343 0
1 103 205 337 343 0
1 103 211 337 343 0
1 205 211 337 343 0
7 97 103 205 211 0
7 97 103 205 337 0
7 97 103 205 343 0
7 97 103 211 337 0
7 97 103 211 343 0
7 97 103 337 343 0
7 97 205 211 337 0
7 97 205 211 343 0
7 97 205 337 343 0
7 97 211 337 343 0
7 103 205 211 337 0
7 103 205 211 343 0
7 103 205 337 343 0
7 103 211 337 343 0
7 205 211 337 343 0
97 103 205 211 337 0
97 103 205 211 343 0
97 103 205 337 343 0
97 103 211 337 343 0
97 205 211 337 343 0
103 205 211 337 343 0
-2 -8 -98 -104 -206 0
-2 -8 -98 -104 -212 0
-2 -8 -98 -104 -338 0
-2 -8 -98 -104 -344 0
-2 -8 -98 -206 -212 0
-2 -8 -98 -206 -338 0
-2 -8 -98 -206 -344 0
-2 -8 -98 -212 -338 0
-2 -8 -98 -212 -344 0
-2 -8 -98 -338 -344 0
-2 -8 -104 -206 -212 0
-2 -8 -104 -206 -338 0
-2 -8 -104 -206 -344 0
-2 -8 -104 -212 -338 0
-2 -8 -104 -212 -344 0
-2 -8 -104 -338 -344 0
-2 -8 -206 -212 -338 0
-2 -8 -206 -212 -344 0
-2 -8 -206 -338 -344 0
-2 -8 -212 -338 -344 0
-2 -98 -104 -206 -212 0
-2 -98 -104 -206 -338 0
-2 -98 -104 -206 -344 0
-2 -98 -104 -212 -338 0
-2 -98 -104 -212 -344 0
-2 -98 -104 -338 -344 0
-2 -98 -206 -212 -338 0
-2 -98 -206 -212 -344 0
-2 -98 -206 -338 -344 0
-2 -98 -212 -338 -344 0
-2 -104 -206 -212 -338 0
-2 -104 -206 -212 -344 0
-2 -104 -206 -338 -344 0
-2 -104 -212 -338 -344 0
-2 -206 -212 -338 -344 0
-8 -98 -104 -206 -212 0
-8 -98 -104 -206 -338 0
-8 -98 -104 -206 -344 0
-8 -98 -104 -212 -338 0
-8 -98 -104 -212 -344 0
-8 -98 -104 -338 -344 0
-8 -98 -206 -212 -338 0
-8 -98 -206 -212 -344 0
-8 -98 -206 -338 -344 0
-8 -98 -212 -338 -344 0
-8 -104 -206 -212 -338 0
-8 -104 -206 -212 -344 0
-8 -104 -206 -338 -344 0
-8 -104 -212 -338 -344 0
-8 -206 -212 -338 -344 0
-98 -104 -206 -212 -338 0
-98 -104 -206 -212 -344 0
-98 -104 -206 -338 -344 0
-98 -104 -212 -338 -344 0
-98 -206 -212 -338 -344 0
-104 -206 -212 -338 -344 0
2 8 98 104 206 0
2 8 98 104 212 0
2 8 98 104 338 0
2 8 98 104 344 0
2 8 98 206 212 0
2 8 98 206 338 0
2 8 98 206 344 0
2 8 98 212 338 0
2 8 98 212 344 0
2 8 98 338 344 0
2 8 104 206 212 0
2 8 104 206 338 0
2 8 104 206 344 0
2 8 104 212 338 0
2 8 104 212 344 0
2 8 104 338 344 0
2 8 206 212 338 0
2 8 206 212 344 0
2 8 206 338 344 0
2 8 212 338 344 0
2 98 104 206 212 0
2 98 104 206 338 0
2 98 104 206 344 0
2 98 104 212 338 0
2 98 104 212 344 0
2 98 104 338 344 0
2 98 206 212 338 0
2 98 206 212 344 0
2 98 206 338 344 0
2 98 212 338 344 0
2 104 206 212 338 0
2 104 206 212 344 0
2 104 206 338 344 0
2 104 212 338 344 0
2 206 212 338 344 0
8 98 104 206 212 0
8 98 104 206 338 0
8 98 104 206 344 0
8 98 104 212 338 0
8 98 104 212 344 0
8 98 104 338 344 0
8 98 206 212 338 0
8 98 206 212 344 0
8 98 206 338 344 0
8 98 212 338 344 0
8 104 206 212 338 0
8 104 206 212 344 0
8 104 206 338 344 0
8 104 212 338 344 0
8 206 212 338 344 0
98 104 206 212 338 0
98 104 206 212 344 0
98 104 206 338 344 0
98 104 212 338 344 0
98 206 212 338 344 0
104 206 212 338 344 0
-361 -376 -601 0
-361 -376 -616 0
-361 -376 -871 0
-361 -376 -886 0
-361 -376 -1201 0
-361 -376 -1216 0
-361 -601 -616 0
-361 -601 -871 0
-361 -601 -886 0
-361 -601 -1201 0
-361 -601 -1216 0
-361 -616 -871 0
-361 -616 -886 0
-361 -616 -1201 0
-361 -616 -1216 0
-361 -871 -886 0
-361 -871 -1201 0
-361 -871 -1216 0
-361 -886 -1201 0
-361 -886 -1216 0
-361 -1201 -1216 0
-376 -601 -616 0
-376 -601 -871 0
-376 -601 -886 0
-376 -601 -1201 0
-376 -601 -1216 0
-376 -616 -871 0
-376 -616 -886 0
-376 -616 -1201 0
-376 -616 -1216 0
-376 -871 -886 0
-376 -871 -1201 0
-376 -871 -1216 0
-376 -886 -1201 0
-376 -886 -1216 0
-376 -1201 -1216 0
-601 -616 -871 0
-601 -616 -886 0
-601 -616 -1201 0
-601 -616 -1216 0
-601 -871 -886 0
-601 -871 -1201 0
-601 -871 -1216 0
-601 -886 -1201 0
-601 -886 -1216 0
-601 -1201 -1216 0
-616 -871 -886 0
-616 -871 -1201 0
-616 -871 -1216 0
-616 -886 -1201 0
-616 -886 -1216 0
-616 -1201 -1216 0
-871 -886 -1201 0
-871 -886 -1216 0
-871 -1201 -1216 0
-886 -1201 -1216 0
361 376 601 616 871 886 1201 0
361 376 601 616 871 886 1216 0
361 376 601 616 871 1201 1216 0
361 376 601 616 886 1201 1216 0
361 376 601 871 886 1201 1216 0
361 376 616 871 886 1201 1216 0
361 601 616 871 886 1201 1216 0
376 601 616 871 886 1201 1216 0
-13 -19 -121 -127 -181 0
-13 -19 -121 -127 -187 0
-13 -19 -121 -127 -313 0
-13 -19 -121 -127 -319 0
-13 -19 -121 -181 -187 0
-13 -19 -121 -181 -313 0
-13 -19 -121 -181 -319 0
-13 -19 -121 -187 -313 0
-13 -19 -121 -187 -319 0
-13 -19 -121 -313 -319 0
-13 -19 -127 -181 -187 0
-13 -19 -127 -181 -313 0
-13 -19 -127 -181 -319 0
-13 -19 -127 -187 -313 0
-13 -19 -127 -187 -319 0
-13 -19 -127 -313 -319 0
-13 -19 -181 -187 -313 0
-13 -19 -181 -187 -319 0
-13 -19 -181 -313 -319 0
-13 -19 -187 -313 -319 0
-13 -121 -127 -181 -187 0
-13 -121 -127 -181 -313 0
-13 -121 -127 -181 -319 0
-13 -121 -127 -187 -313 0
-13 -121 -127 -187 -319 0
-13 -121 -127 -313 -319 0
-13 -121 -181 -187 -313 0
-13 -121 -181 -187 -319 0
-13 -121 -181 -313 -319 0
-13 -121 -187 -313 -319 0
-13 -127 -181 -187 -313 0
-13 -127 -181 -187 -319 0
-13 -127 -181 -313 -319 0
-13 -127 -187 -313 -319 0
-13 -181 -187 -313 -319 0
-19 -121 -127 -181 -187 0
-19 -121 -127 -181 -313 0
-19 -121 -127 -181 -319 0
-19 -121 -127 -187 -313 0
-19 -121 -127 -187 -319 0
-19 -121 -127 -313 -319 0
-19 -121 -181 -187 -313 0
-19 -121 -181 -187 -319 0
-19 -121 -181 -313 -319 0
-19 -121 -187 -313 -319 0
-19 -127 -181 -187 -313 0
-19 -127 -181 -187 -319 0
-19 -127 -181 -313 -319 0
-19 -127 -187 -313 -319 0
-19 -181 -187 -313 -319 0
-121 -127 -181 -187 -313 0
-121 -127 -181 -187 -319 0
-121 -127 -181 -313 -319 0
-121 -127 -187 -313 -319 0
-121 -181 -187 -313 -319 0
-127 -181 -187 -313 -319 0
13 19 121 127 181 0
13 19 121 127 187 0
13 19 121 127 313 0
13 19 121 127 319 0
13 19 121 181 187 0
13 19 121 181 313 0
13 19 121 181 319 0
13 19 121 187 313 0
13 19 121 187 319 0
13 19 121 313 319 0
13 19 127 181 187 0
13 19 127 181 313 0
13 19 127 181 319 0
13 19 127 187 313 0
13 19 127 187 319 0
13 19 127 313 319 0
13 19 181 187 313 0
13 19 181 187 319 0
13 19 181 313 319 0
13 19 187 313 319 0
13 121 127 181 187 0
13 121 127 181 313 0
13 121 127 181 319 0
13 121 127 187 313 0
13 121 127 187 319 0
13 121 127 313 319 0
13 121 181 187 313 0
13 121 181 187 319 0
13 121 181 313 319 0
13 121 187 313 319 0
13 127 181 187 313 0
13 127 181 187 319 0
13 127 181 313 319 0
13 127 187 313 319 0
13 181 187 313 319 0
19 121 127 181 187 0
19 121 127 181 313 0
19 121 127 181 319 0
19 121 127 187 313 0
19 121 127 187 319 0
19 121 127 313 319 0
19 121 181 187 313 0
19 121 181 187 319 0
19 121 181 313 319 0
19 121 187 313 319 0
19 127 181 187 313 0
19 127 181 187 319 0
19 127 181 313 319 0
19 127 187 313 319 0
19 181 187 313 319 0
121 127 181 187 313 0
121 127 181 187 319 0
121 127 181 313 319 0
121 127 187 313 319 0
121 181 187 313 319 0
127 181 187 313 319 0
-14 -20 -122 -128 -182 0
-14 -20 -122 -128 -188 0
-14 -20 -122 -128 -314 0
-14 -20 -122 -128 -320 0
-14 -20 -122 -182 -188 0
-14 -20 -122 -182 -314 0
-14 -20 -122 -182 -320 0
-14 -20 -122 -188 -314 0
-14 -20 -122 -188 -320 0
-14 -20 -122 -314 -320 0
-14 -20 -128 -182 -188 0
-14 -20 -128 -182 -314 0
-14 -20 -128 -182 -320 0
-14 -20 -128 -188 -314 0
-14 -20 -128 -188 -320 0
-14 -20 -128 -314 -320 0
-14 -20 -182 -188 -314 0
-14 -20 -182 -188 -320 0
-14 -20 -182 -314 -320 0
-14 -20 -188 -314 -320 0
-14 -122 -128 -182 -188 0
-14 -122 -128 -182 -314 0
-14 -122 -128 -182 -320 0
-14 -122 -128 -188 -314 0
-14 -122 -128 -188 -320 0
-14 -122 -128 -314 -320 0
-14 -122 -182 -188 -314 0
-14 -122 -182 -188 -320 0
-14 -122 -182 -314 -320 0
-14 -122 -188 -314 -320 0
-14 -128 -182 -188 -314 0
-14 -128 -182 -188 -320 0
-14 -128 -182 -314 -320 0
-14 -128 -188 -314 -320 0
-14 -182 -188 -314 -320 0
-20 -122 -128 -182 -188 0
-20 -122 -128 -182 -314 0
-20 -122 -128 -182 -320 0
-20 -122 -128 -188 -314 0
-20 -122 -128 -188 -320 0
-20 -122 -128 -314 -320 0
-20 -122 -182 -188 -314 0
-20 -122 -182 -188 -320 0
-20 -122 -182 -314 -320 0
-20 -122 -188 -314 -320 0
-20 -128 -182 -188 -314 0
-20 -128 -182 -188 -320 0
-20 -128 -182 -314 -320 0
-20 -128 -188 -314 -320 0
-20 -182 -188 -314 -320 0
-122 -128 -182 -188 -314 0
-122 -128 -182 -188 -320 0
-122 -128 -182 -314 -320 0
-122 -128 -188 -314 -320 0
-122 -182 -188 -314 -320 0
-128 -182 -188 -314 -320 0
14 20 122 128 182 0
14 20 122 128 188 0
14 20 122 128 314 0
14 20 122 128 320 0
14 20 122 182 188 0
14 20 122 182 314 0
14 20 122 182 320 0
14 20 122 188 314 0
14 20 122 188 320 0
14 20 122 314 320 0
14 20 128 182 188 0
14 20 128 182 314 0
14 20 128 182 320 0
14 20 128 188 314 0
14 20 128 188 320 0
14 20 128 314 320 0
14 20 182 188 314 0
14 20 182 188 320 0
14 20 182 314 320 0
14 20 188 314 320 0
14 122 128 182 188 0
14 122 128 182 314 0
14 122 128 182 320 0
14 122 128 188 314 0
14 122 128 188 320 0
14 122 128 314 320 0
14 122 182 188 314 0
14 122 182 188 320 0
14 122 182 314 320 0
14 122 188 314 320 0
14 128 182 188 314 0
14 128 182 188 320 0
14 128 182 314 320 0
14 128 188 314 320 0
14 182 188 314 320 0
20 122 128 182 188 0
20 122 128 182 314 0
20 122 128 182 320 0
20 122 128 188 314 0
20 122 128 188 320 0
20 122 128 314 320 0
20 122 182 188 314 0
20 122 182 188 320 0
20 122 182 314 320 0
20 122 188 314 320 0
20 128 182 188 314 0
20 128 182 188 320 0
20 128 182 314 320 0
20 128 188 314 320 0
20 182 188 314 320 0
122 128 182 188 314 0
122 128 182 188 320 0
122 128 182 314 320 0
122 128 188 314 320 0
122 182 188 314 320 0
128 182 188 314 320 0
-391 -406 -661 0
-391 -406 -676 0
-391 -406 -811 0
-391 -406 -826 0
-391 -406 -1141 0
-391 -406 -1156 0
-391 -661 -676 0
-391 -661 -811 0
-391 -661 -826 0
-391 -661 -1141 0
-391 -661 -1156 0
-391 -676 -811 0
-391 -676 -826 0
-391 -676 -1141 0
-391 -676 -1156 0
-391 -811 -826 0
-391 -811 -1141 0
-391 -811 -1156 0
-391 -826 -1141 0
-391 -826 -1156 0
-391 -1141 -1156 0
-406 -661 -676 0
-406 -661 -811 0
-406 -661 -826 0
-406 -661 -1141 0
-406 -661 -1156 0
-406 -676 -811 0
-406 -676 -826 0
-406 -676 -1141 0
-406 -676 -1156 0
-406 -811 -826 0
-406 -811 -1141 0
-406 -811 -1156 0
-406 -826 -1141 0
-406 -826 -1156 0
-406 -1141 -1156 0
-661 -676 -811 0
-661 -676 -826 0
-661 -676 -1141 0
-661 -676 -1156 0
-661 -811 -826 0
-661 -811 -1141 0
-661 -811 -1156 0
-661 -826 -1141 0
-661 -826 -1156 0
-661 -1141 -1156 0
-676 -811 -826 0
-676 -811 -1141 0
-676 -811 -1156 0
-676 -826 -1141 0
-676 -826 -1156 0
-676 -1141 -1156 0
-811 -826 -1141 0
-811 -826 -1156 0
-811 -1141 -1156 0
-826 -1141 -1156 0
391 406 661 676 811 826 1141 0
391 406 661 676 811 826 1156 0
391 406 661 676 811 1141 1156 0
391 406 661 676 826 1141 1156 0
391 406 661 811 826 1141 1156 0
391 406 676 811 826 1141 1156 0
391 661 676 811 826 1141 1156 0
406 661 676 811 826 1141 1156 0
-25 -31 -73 -79 -193 0
-25 -31 -73 -79 -199 0
-25 -31 -73 -79 -349 0
-25 -31 -73 -79 -355 0
-25 -31 -73 -193 -199 0
-25 -31 -73 -193 -349 0
-25 -31 -73 -193 -355 0
-25 -31 -73 -199 -349 0
-25 -31 -73 -199 -355 0
-25 -31 -73 -349 -355 0
-25 -31 -79 -193 -199 0
-25 -31 -79 -193 -349 0
-25 -31 -79 -193 -355 0
-25 -31 -79 -199 -349 0
-25 -31 -79 -199 -355 0
-25 -31 -79 -349 -355 0
-25 -31 -193 -199 -349 0
-25 -31 -193 -199 -355 0
-25 -31 -193 -349 -355 0
-25 -31 -199 -349 -355 0
-25 -73 -79 -193 -199 0
-25 -73 -79 -193 -349 0
-25 -73 -79 -193 -355 0
-25 -73 -79 -199 -349 0
-25 -73 -79 -199 -355 0
-25 -73 -79 -349 -355 0
-25 -73 -193 -199 -349 0
-25 -73 -193 -199 -355 0
-25 -73 -193 -349 -355 0
-25 -73 -199 -349 -355 0
-25 -79 -193 -199 -349 0
-25 -79 -193 -199 -355 0
-25 -79 -193 -349 -355 0
-25 -79 -199 -349 -355 0
-25 -193 -199 -349 -355 0
-31 -73 -79 -193 -199 0
-31 -73 -79 -193 -349 0
-31 -73 -79 -193 -355 0
-31 -73 -79 -199 -349 0
-31 -73 -79 -199 -355 0
-31 -73 -79 -349 -355 0
-31 -73 -193 -199 -349 0
-31 -73 -193 -199 -355 0
-31 -73 -193 -349 -355 0
-31 -73 -199 -349 -355 0
-31 -79 -193 -199 -349 0
-31 -79 -193 -199 -355 0
-31 -79 -193 -349 -355 0
-31 -79 -199 -349 -355 0
-31 -193 -199 -349 -355 0
-73 -79 -193 -199 -349 0
-73 -79 -193 -199 -355 0
-73 -79 -193 -349 -355 0
-73 -79 -199 -349 -355 0
-73 -193 -199 -349 -355 0
-79 -193 -199 -349 -355 0
25 31 73 79 193 0
25 31 73 79 199 0
25 31 73 79 349 0
25 31 73 79 355 0
25 31 73 193 199 0
25 31 73 193 349 0
25 31 73 193 355 0
25 31 73 199 349 0
25 31 73 199 355 0
25 31 73 349 355 0
25 31 79 193 199 0
25 31 79 193 349 0
25 31 79 193 355 0
25 31 79 199 349 0
25 31 79 199 355 0
25 31 79 349 355 0
25 31 193 199 349 0
25 31 193 199 355 0
25 31 193 349 355 0
25 31 199 349 355 0
25 73 79 193 199 0
25 73 79 193 349 0
25 73 79 193 355 0
25 73 79 199 349 0
25 73 79 199 355 0
25 73 79 349 355 0
25 73 193 199 349 0
25 73 193 199 355 0
25 73 193 349 355 0
25 73 199 349 355 0
25 79 193 199 349 0
25 79 193 199 355 0
25 79 193 349 355 0
25 79 199 349 355 0
25 193 199 349 355 0
31 73 79 193 199 0
31 73 79 193 349 0
31 73 79 193 355 0
31 73 79 199 349 0
31 73 79 199 355 0
31 73 79 349 355 0
31 73 193 199 349 0
31 73 193 199 355 0
31 73 193 349 355 0
31 73 199 349 355 0
31 79 193 199 349 0
31 79 193 199 355 0
31 79 193 349 355 0
31 79 199 349 355 0
31 193 199 349 355 0
73 79 193 199 349 0
73 79 193 199 355 0
73 79 193 349 355 0
73 79 199 349 355 0
73 193 199 349 355 0
79 193 199 349 355 0
-26 -32 -74 -80 -194 0
-26 -32 -74 -80 -200 0
-26 -32 -74 -80 -350 0
-26 -32 -74 -80 -356 0
-26 -32 -74 -194 -200 0
-26 -32 -74 -194 -350 0
-26 -32 -74 -194 -356 0
-26 -32 -74 -200 -350 0
-26 -32 -74 -200 -356 0
-26 -32 -74 -350 -356 0
-26 -32 -80 -194 -200 0
-26 -32 -80 -194 -350 0
-26 -32 -80 -194 -356 0
-26 -32 -80 -200 -350 0
-26 -32 -80 -200 -356 0
-26 -32 -80 -350 -356 0
-26 -32 -194 -200 -350 0
-26 -32 -194 -200 -356 0
-26 -32 -194 -350 -356 0
-26 -32 -200 -350 -356 0
-26 -74 -80 -194 -200 0
-26 -74 -80 -194 -350 0
-26 -74 -80 -194 -356 0
-26 -74 -80 -200 -350 0
-26 -74 -80 -200 -356 0
-26 -74 -80 -350 -356 0
-26 -74 -194 -200 -350 0
-26 -74 -194 -200 -356 0
-26 -74 -194 -350 -356 0
-26 -74 -200 -350 -356 0
-26 -80 -194 -200 -350 0
-26 -80 -194 -200 -356 0
-26 -80 -194 -350 -356 0
-26 -80 -200 -350 -356 0
-26 -194 -200 -350 -356 0
-32 -74 -80 -194 -200 0
-32 -74 -80 -194 -350 0
-32 -74 -80 -194 -356 0
-32 -74 -80 -200 -350 0
-32 -74 -80 -200 -356 0
-32 -74 -80 -350 -356 0
-32 -74 -194 -200 -350 0
-32 -74 -194 -200 -356 0
-32 -74 -194 -350 -356 0
-32 -74 -200 -350 -356 0
-32 -80 -194 -200 -350 0
-32 -80 -194 -200 -356 0
-32 -80 -194 -350 -356 0
-32 -80 -200 -350 -356 0
-32 -194 -200 -350 -356 0
-74 -80 -194 -200 -350 0
-74 -80 -194 -200 -356 0
-74 -80 -194 -350 -356 0
-74 -80 -200 -350 -356 0
-74 -194 -200 -350 -356 0
-80 -194 -200 -350 -356 0
26 32 74 80 194 0
26 32 74 80 200 0
26 32 74 80 350 0
26 32 74 80 356 0
26 32 74 194 200 0
26 32 74 194 350 0
26 32 74 194 356 0
26 32 74 200 350 0
26 32 74 200 356 0
26 32 74 350 356 0
26 32 80 194 200 0
26 32 80 194 350 0
26 32 80 194 356 0
26 32 80 200 350 0
26 32 80 200 356 0
26 32 80 350 356 0
26 32 194 200 350 0
26 32 194 200 356 0
26 32 194 350 356 0
26 32 200 350 356 0
26 74 80 194 200 0
26 74 80 194 350 0
26 74 80 194 356 0
26 74 80 200 350 0
26 74 80 200 356 0
26 74 80 350 356 0
26 74 194 200 350 0
26 74 194 200 356 0
26 74 194 350 356 0
26 74 200 350 356 0
26 80 194 200 350 0
26 80 194 200 356 0
26 80 194 350 356 0
26 80 200 350 356 0
26 194 200 350 356 0
32 74 80 194 200 0
32 74 80 194 350 0
32 74 80 194 356 0
32 74 80 200 350 0
32 74 80 200 356 0
32 74 80 350 356 0
32 74 194 200 350 0
32 74 194 200 356 0
32 74 194 350 356 0
32 74 200 350 356 0
32 80 194 200 350 0
32 80 194 200 356 0
32 80 194 350 356 0
32 80 200 350 356 0
32 194 200 350 356 0
74 80 194 200 350 0
74 80 194 200 356 0
74 80 194 350 356 0
74 80 200 350 356 0
74 194 200 350 356 0
80 194 200 350 356 0
-421 -436 -541 0
-421 -436 -556 0
-421 -436 -841 0
-421 -436 -856 0
-421 -436 -1231 0
-421 -436 -1246 0
-421 -541 -556 0
-421 -541 -841 0
-421 -541 -856 0
-421 -541 -1231 0
-421 -541 -1246 0
-421 -556 -841 0
-421 -556 -856 0
-421 -556 -1231 0
-421 -556 -1246 0
-421 -841 -856 0
-421 -841 -1231 0
-421 -841 -1246 0
-421 -856 -1231 0
-421 -856 -1246 0
-421 -1231 -1246 0
-436 -541 -556 0
-436 -541 -841 0
-436 -541 -856 0
-436 -541 -1231 0
-436 -541 -1246 0
-436 -556 -841 0
-436 -556 -856 0
-436 -556 -1231 0
-436 -556 -1246 0
-436 -841 -856 0
-436 -841 -1231 0
-436 -841 -1246 0
-436 -856 -1231 0
-436 -856 -1246 0
-436 -1231 -1246 0
-541 -556 -841 0
-541 -556 -856 0
-541 -556 -1231 0
-541 -556 -1246 0
-541 -841 -856 0
-541 -841 -1231 0
-541 -841 -1246 0
-541 -856 -1231 0
-541 -856 -1246 0
-541 -1231 -1246 0
-556 -841 -856 0
-556 -841 -1231 0
-556 -841 -1246 0
-556 -856 -1231 0
-556 -856 -1246 0
-556 -1231 -1246 0
-841 -856 -1231 0
-841 -856 -1246 0
-841 -1231 -1246 0
-856 -1231 -1246 0
421 436 541 556 841 856 1231 0
421 436 541 556 841 856 1246 0
421 436 541 556 841 1231 1246 0
421 436 541 556 856 1231 1246 0
421 436 541 841 856 1231 1246 0
421 436 556 841 856 1231 1246 0
421 541 556 841 856 1231 1246 0
436 541 556 841 856 1231 1246 0
-229 -235 -265 0
-229 -235 -271 0
-229 -265 -271 0
-235 -265 -271 0
229 235 265 0
229 235 271 0
229 265 271 0
235 265 271 0
-230 -236 -266 0
-230 -236 -272 0
-230 -266 -272 0
-236 -266 -272 0
230 236 266 0
230 236 272 0
230 266 272 0
236 266 272 0
-931 -946 0
-931 -1021 0
-931 -1036 0
-946 -1021 0
-946 -1036 0
-1021 -1036 0
931 946 1021 1036 0
-37 -43 -133 -139 -157 0
-37 -43 -133 -139 -163 0
-37 -43 -133 -139 -289 0
-37 -43 -133 -139 -295 0
-37 -43 -133 -157 -163 0
-37 -43 -133 -157 -289 0
-37 -43 -133 -157 -295 0
-37 -43 -133 -163 -289 0
-37 -43 -133 -163 -295 0
-37 -43 -133 -289 -295 0
-37 -43 -139 -157 -163 0
-37 -43 -139 -157 -289 0
-37 -43 -139 -157 -295 0
-37 -43 -139 -163 -289 0
-37 -43 -139 -163 -295 0
-37 -43 -139 -289 -295 0
-37 -43 -157 -163 -289 0
-37 -43 -157 -163 -295 0
-37 -43 -157 -289 -295 0
-37 -43 -163 -289 -295 0
-37 -133 -139 -157 -163 0
-37 -133 -139 -157 -289 0
-37 -133 -139 -157 -295 0
-37 -133 -139 -163 -289 0
-37 -133 -139 -163 -295 0
-37 -133 -139 -289 -295 0
-37 -133 -157 -163 -289 0
-37 -133 -157 -163 -295 0
-37 -133 -157 -289 -295 0
-37 -133 -163 -289 -295 0
-37 -139 -157 -163 -289 0
-37 -139 -157 -163 -295 0
-37 -139 -157 -289 -295 0
-37 -139 -163 -289 -295 0
-37 -157 -163 -289 -295 0
-43 -133 -139 -157 -163 0
-43 -133 -139 -157 -289 0
-43 -133 -139 -157 -295 0
-43 -133 -139 -163 -289 0
-43 -133 -139 -163 -295 0
-43 -133 -139 -289 -295 0
-43 -133 -157 -163 -289 0
-43 -133 -157 -163 -295 0
-43 -133 -157 -289 -295 0
-43 -133 -163 -289 -295 0
-43 -139 -157 -163 -289 0
-43 -139 -157 -163 -295 0
-43 -139 -157 -289 -295 0
-43 -139 -163 -289 -295 0
-43 -157 -163 -289 -295 0
-133 -139 -157 -163 -289 0
-133 -139 -157 -163 -295 0
-133 -139 -157 -289 -295 0
-133 -139 -163 -289 -295 0
-133 -157 -163 -289 -295 0
-139 -157 -163 -289 -295 0
37 43 133 139 157 0
37 43 133 139 163 0
37 43 133 139 289 0
37 43 133 139 295 0
37 43 133 157 163 0
37 43 133 157 289 0
37 43 133 157 295 0
37 43 133 163 289 0
37 43 133 163 295 0
37 43 133 289 295 0
37 43 139 157 163 0
37 43 139 157 289 0
37 43 139 157 295 0
37 43 139 163 289 0
37 43 139 163 295 0
37 43 139 289 295 0
37 43 157 163 289 0
37 43 157 163 295 0
37 43 157 289 295 0
37 43 163 289 295 0
37 133 139 157 163 0
37 133 139 157 289 0
37 133 139 157 295 0
37 133 139 163 289 0
37 133 139 163 295 0
37 133 139 289 295 0
37 133 157 163 289 0
37 133 157 163 295 0
37 133 157 289 295 0
37 133 163 289 295 0
37 139 157 163 289 0
37 139 157 163 295 0
37 139 157 289 295 0
37 139 163 289 295 0
37 157 163 289 295 0
43 133 139 157 163 0
43 133 139 157 289 0
43 133 139 157 295 0
43 133 139 163 289 0
43 133 139 163 295 0
43 133 139 289 295 0
43 133 157 163 289 0
43 133 157 163 295 0
43 133 157 289 295 0
43 133 163 289 295 0
43 139 157 163 289 0
43 139 157 163 295 0
43 139 157 289 295 0
43 139 163 289 295 0
43 157 163 289 295 0
133 139 157 163 289 0
133 139 157 163 295 0
133 139 157 289 295 0
133 139 163 289 295 0
133 157 163 289 295 0
139 157 163 289 295 0
-38 -44 -134 -140 -158 0
-38 -44 -134 -140 -164 0
-38 -44 -134 -140 -290 0
-38 -44 -134 -140 -296 0
-38 -44 -134 -158 -164 0
-38 -44 -134 -158 -290 0
-38 -44 -134 -158 -296 0
-38 -44 -134 -164 -290 0
-38 -44 -134 -164 -296 0
-38 -44 -134 -290 -296 0
-38 -44 -140 -158 -164 0
-38 -44 -140 -158 -290 0
-38 -44 -140 -158 -296 0
-38 -44 -140 -164 -290 0
-38 -44 -140 -164 -296 0
-38 -44 -140 -290 -296 0
-38 -44 -158 -164 -290 0
-38 -44 -158 -164 -296 0
-38 -44 -158 -290 -296 0
-38 -44 -164 -290 -296 0
-38 -134 -140 -158 -164 0
-38 -134 -140 -158 -290 0
-38 -134 -140 -158 -296 0
-38 -134 -140 -164 -290 0
-38 -134 -140 -164 -296 0
-38 -134 -140 -290 -296 0
-38 -134 -158 -164 -290 0
-38 -134 -158 -164 -296 0
-38 -134 -158 -290 -296 0
-38 -134 -164 -290 -296 0
-38 -140 -158 -164 -290 0
-38 -140 -158 -164 -296 0
-38 -140 -158 -290 -296 0
-38 -140 -164 -290 -296 0
-38 -158 -164 -290 -296 0
-44 -134 -140 -158 -164 0
-44 -134 -140 -158 -290 0
-44 -134 -140 -158 -296 0
-44 -134 -140 -164 -290 0
-44 -134 -140 -164 -296 0
-44 -134 -140 -290 -296 0
-44 -134 -158 -164 -290 0
-44 -134 -158 -164 -296 0
-44 -134 -158 -290 -296 0
-44 -134 -164 -290 -296 0
-44 -140 -158 -164 -290 0
-44 -140 -158 -164 -296 0
-44 -140 -158 -290 -296 0
-44 -140 -164 -290 -296 0
-44 -158 -164 -290 -296 0
-134 -140 -158 -164 -290 0
-134 -140 -158 -164 -296 0
-134 -140 -158 -290 -296 0
-134 -140 -164 -290 -296 0
-134 -158 -164 -290 -296 0
-140 -158 -164 -290 -296 0
38 44 134 140 158 0
38 44 134 140 164 0
38 44 134 140 290 0
38 44 134 140 296 0
38 44 134 158 164 0
38 44 134 158 290 0
38 44 134 158 296 0
38 44 134 164 290 0
38 44 134 164 296 0
38 44 134 290 296 0
38 44 140 158 164 0
38 44 140 158 290 0
38 44 140 158 296 0
38 44 140 164 290 0
38 44 140 164 296 0
38 44 140 290 296 0
38 44 158 164 290 0
38 44 158 164 296 0
38 44 158 290 296 0
38 44 164 290 296 0
38 134 140 158 164 0
38 134 140 158 290 0
38 134 140 158 296 0
38 134 140 164 290 0
38 134 140 164 296 0
38 134 140 290 296 0
38 134 158 164 290 0
38 134 158 164 296 0
38 134 158 290 296 0
38 134 164 290 296 0
38 140 158 164 290 0
38 140 158 164 296 0
38 140 158 290 296 0
38 140 164 290 296 0
38 158 164 290 296 0
44 134 140 158 164 0
44 134 140 158 290 0
44 134 140 158 296 0
44 134 140 164 290 0
44 134 140 164 296 0
44 134 140 290 296 0
44 134 158 164 290 0
44 134 158 164 296 0
44 134 158 290 296 0
44 134 164 290 296 0
44 140 158 164 290 0
44 140 158 164 296 0
44 140 158 290 296 0
44 140 164 290 296 0
44 158 164 290 296 0
134 140 158 164 290 0
134 140 158 164 296 0
134 140 158 290 296 0
134 140 164 290 296 0
134 158 164 290 296 0
140 158 164 290 296 0
-451 -466 -691 0
-451 -466 -706 0
-451 -466 -751 0
-451 -466 -766 0
-451 -466 -1081 0
-451 -466 -1096 0
-451 -691 -706 0
-451 -691 -751 0
-451 -691 -766 0
-451 -691 -1081 0
-451 -691 -1096 0
-451 -706 -751 0
-451 -706 -766 0
-451 -706 -1081 0
-451 -706 -1096 0
-451 -751 -766 0
-451 -751 -1081 0
-451 -751 -1096 0
-451 -766 -1081 0
-451 -766 -1096 0
-451 -1081 -1096 0
-466 -691 -706 0
-466 -691 -751 0
-466 -691 -766 0
-466 -691 -1081 0
-466 -691 -1096 0
-466 -706 -751 0
-466 -706 -766 0
-466 -706 -1081 0
-466 -706 -1096 0
-466 -751 -766 0
-466 -751 -1081 0
-466 -751 -1096 0
-466 -766 -1081 0
-466 -766 -1096 0
-466 -1081 -1096 0
-691 -706 -751 0
-691 -706 -766 0
-691 -706 -1081 0
-691 -706 -1096 0
-691 -751 -766 0
-691 -751 -1081 0
-691 -751 -1096 0
-691 -766 -1081 0
-691 -766 -1096 0
-691 -1081 -1096 0
-706 -751 -766 0
-706 -751 -1081 0
-706 -751 -1096 0
-706 -766 -1081 0
-706 -766 -1096 0
-706 -1081 -1096 0
-751 -766 -1081 0
-751 -766 -1096 0
-751 -1081 -1096 0
-766 -1081 -1096 0
451 466 691 706 751 766 1081 0
451 466 691 706 751 766 1096 0
451 466 691 706 751 1081 1096 0
451 466 691 706 766 1081 1096 0
451 466 691 751 766 1081 1096 0
451 466 706 751 766 1081 1096 0
451 691 706 751 766 1081 1096 0
466 691 706 751 766 1081 1096 0
-49 -55 -85 -91 -169 0
-49 -55 -85 -91 -175 0
-49 -55 -85 -91 -325 0
-49 -55 -85 -91 -331 0
-49 -55 -85 -169 -175 0
-49 -55 -85 -169 -325 0
-49 -55 -85 -169 -331 0
-49 -55 -85 -175 -325 0
-49 -55 -85 -175 -331 0
-49 -55 -85 -325 -331 0
-49 -55 -91 -169 -175 0
-49 -55 -91 -169 -325 0
-49 -55 -91 -169 -331 0
-49 -55 -91 -175 -325 0
-49 -55 -91 -175 -331 0
-49 -55 -91 -325 -331 0
-49 -55 -169 -175 -325 0
-49 -55 -169 -175 -331 0
-49 -55 -169 -325 -331 0
-49 -55 -175 -325 -331 0
-49 -85 -91 -169 -175 0
-49 -85 -91 -169 -325 0
-49 -85 -91 -169 -331 0
-49 -85 -91 -175 -325 0
-49 -85 -91 -175 -331 0
-49 -85 -91 -325 -331 0
-49 -85 -169 -175 -325 0
-49 -85 -169 -175 -331 0
-49 -85 -169 -325 -331 0
-49 -85 -175 -325 -331 0
-49 -91 -169 -175 -325 0
-49 -91 -169 -175 -331 0
-49 -91 -169 -325 -331 0
-49 -91 -175 -325 -331 0
-49 -169 -175 -325 -331 0
-55 -85 -91 -169 -175 0
-55 -85 -91 -169 -325 0
-55 -85 -91 -169 -331 0
-55 -85 -91 -175 -325 0
-55 -85 -91 -175 -331 0
-55 -85 -91 -325 -331 0
-55 -85 -169 -175 -325 0
-55 -85 -169 -175 -331 0
-55 -85 -169 -325 -331 0
-55 -85 -175 -325 -331 0
-55 -91 -169 -175 -325 0
-55 -91 -169 -175 -331 0
-55 -91 -169 -325 -331 0
-55 -91 -175 -325 -331 0
-55 -169 -175 -325 -331 0
-85 -91 -169 -175 -325 0
-85 -91 -169 -175 -331 0
-85 -91 -169 -325 -331 0
-85 -91 -175 -325 -331 0
-85 -169 -175 -325 -331 0
-91 -169 -175 -325 -331 0
49 55 85 91 169 0
49 55 85 91 175 0
49 55 85 91 325 0
49 55 85 91 331 0
49 55 85 169 175 0
49 55 85 169 325 0
49 55 85 169 331 0
49 55 85 175 325 0
49 55 85 175 331 0
49 55 85 325 331 0
49 55 91 169 175 0
49 55 91 169 325 0
49 55 91 169 331 0
49 55 91 175 325 0
49 55 91 175 331 0
49 55 91 325 331 0
49 55 169 175 325 0
49 55 169 175 331 0
49 55 169 325 331 0
49 55 175 325 331 0
49 85 91 169 175 0
49 85 91 169 325 0
49 85 91 169 331 0
49 85 91 175 325 0
49 85 91 175 331 0
49 85 91 325 331 0
49 85 169 175 325 0
49 85 169 175 331 0
49 85 169 325 331 0
49 85 175 325 331 0
49 91 169 175 325 0
49 91 169 175 331 0
49 91 169 325 331 0
49 91 175 325 331 0
49 169 175 325 331 0
55 85 91 169 175 0
55 85 91 169 325 0
55 85 91 169 331 0
55 85 91 175 325 0
55 85 91 175 331 0
55 85 91 325 331 0
55 85 169 175 325 0
55 85 169 175 331 0
55 85 169 325 331 0
55 85 175 325 331 0
55 91 169 175 325 0
55 91 169 175 331 0
55 91 169 325 331 0
55 91 175 325 331 0
55 169 175 325 331 0
85 91 169 175 325 0
85 91 169 175 331 0
85 91 169 325 331 0
85 91 175 325 331 0
85 169 175 325 331 0
91 169 175 325 331 0
-50 -56 -86 -92 -170 0
-50 -56 -86 -92 -176 0
-50 -56 -86 -92 -326 0
-50 -56 -86 -92 -332 0
-50 -56 -86 -170 -176 0
-50 -56 -86 -170 -326 0
-50 -56 -86 -170 -332 0
-50 -56 -86 -176 -326 0
-50 -56 -86 -176 -332 0
-50 -56 -86 -326 -332 0
-50 -56 -92 -170 -176 0
-50 -56 -92 -170 -326 0
-50 -56 -92 -170 -332 0
-50 -56 -92 -176 -326 0
-50 -56 -92 -176 -332 0
-50 -56 -92 -326 -332 0
-50 -56 -170 -176 -326 0
-50 -56 -170 -176 -332 0
-50 -56 -170 -326 -332 0
-50 -56 -176 -326 -332 0
-50 -86 -92 -170 -176 0
-50 -86 -92 -170 -326 0
-50 -86 -92 -170 -332 0
-50 -86 -92 -176 -326 0
-50 -86 -92 -176 -332 0
-50 -86 -92 -326 -332 0
-50 -86 -170 -176 -326 0
-50 -86 -170 -176 -332 0
-50 -86 -170 -326 -332 0
-50 -86 -176 -326 -332 0
-50 -92 -170 -176 -326 0
-50 -92 -170 -176 -332 0
-50 -92 -170 -326 -332 0
-50 -92 -176 -326 -332 0
-50 -170 -176 -326 -332 0
-56 -86 -92 -170 -176 0
-56 -86 -92 -170 -326 0
-56 -86 -92 -170 -332 0
-56 -86 -92 -176 -326 0
-56 -86 -92 -176 -332 0
-56 -86 -92 -326 -332 0
-56 -86 -170 -176 -326 0
-56 -86 -170 -176 -332 0
-56 -86 -170 -326 -332 0
-56 -86 -176 -326 -332 0
-56 -92 -170 -176 -326 0
-56 -92 -170 -176 -332 0
-56 -92 -170 -326 -332 0
-56 -92 -176 -326 -332 0
-56 -170 -176 -326 -332 0
-86 -92 -170 -176 -326 0
-86 -92 -170 -176 -332 0
-86 -92 -170 -326 -332 0
-86 -92 -176 -326 -332 0
-86 -170 -176 -326 -332 0
-92 -170 -176 -326 -332 0
50 56 86 92 170 0
50 56 86 92 176 0
50 56 86 92 326 0
50 56 86 92 332 0
50 56 86 170 176 0
50 56 86 170 326 0
50 56 86 170 332 0
50 56 86 176 326 0
50 56 86 176 332 0
50 56 86 326 332 0
50 56 92 170 176 0
50 56 92 170 326 0
50 56 92 170 332 0
50 56 92 176 326 0
50 56 92 176 332 0
50 56 92 326 332 0
50 56 170 176 326 0
50 56 170 176 332 0
50 56 170 326 332 0
50 56 176 326 332 0
50 86 92 170 176 0
50 86 92 170 326 0
50 86 92 170 332 0
50 86 92 176 326 0
50 86 92 176 332 0
50 86 92 326 332 0
50 86 170 176 326 0
50 86 170 176 332 0
50 86 170 326 332 0
50 86 176 326 332 0
50 92 170 176 326 0
50 92 170 176 332 0
50 92 170 326 332 0
50 92 176 326 332 0
50 170 176 326 332 0
56 86 92 170 176 0
56 86 92 170 326 0
56 86 92 170 332 0
56 86 92 176 326 0
56 86 92 176 332 0
56 86 92 326 332 0
56 86 170 176 326 0
56 86 170 176 332 0
56 86 170 326 332 0
56 86 176 326 332 0
56 92 170 176 326 0
56 92 170 176 332 0
56 92 170 326 332 0
56 92 176 326 332 0
56 170 176 326 332 0
86 92 170 176 326 0
86 92 170 176 332 0
86 92 170 326 332 0
86 92 176 326 332 0
86 170 176 326 332 0
92 170 176 326 332 0
-481 -496 -571 0
-481 -496 -586 0
-481 -496 -781 0
-481 -496 -796 0
-481 -496 -1171 0
-481 -496 -1186 0
-481 -571 -586 0
-481 -571 -781 0
-481 -571 -796 0
-481 -571 -1171 0
-481 -571 -1186 0
-481 -586 -781 0
-481 -586 -796 0
-481 -586 -1171 0
-481 -586 -1186 0
-481 -781 -796 0
-481 -781 -1171 0
-481 -781 -1186 0
-481 -796 -1171 0
-481 -796 -1186 0
-481 -1171 -1186 0
-496 -571 -586 0
-496 -571 -781 0
-496 -571 -796 0
-496 -571 -1171 0
-496 -571 -1186 0
-496 -586 -781 0
-496 -586 -796 0
-496 -586 -1171 0
-496 -586 -1186 0
-496 -781 -796 0
-496 -781 -1171 0
-496 -781 -1186 0
-496 -796 -1171 0
-496 -796 -1186 0
-496 -1171 -1186 0
-571 -586 -781 0
-571 -586 -796 0
-571 -586 -1171 0
-571 -586 -1186 0
-571 -781 -796 0
-571 -781 -1171 0
-571 -781 -1186 0
-571 -796 -1171 0
-571 -796 -1186 0
-571 -1171 -1186 0
-586 -781 -796 0
-586 -781 -1171 0
-586 -781 -1186 0
-586 -796 -1171 0
-586 -796 -1186 0
-586 -1171 -1186 0
-781 -796 -1171 0
-781 -796 -1186 0
-781 -1171 -1186 0
-796 -1171 -1186 0
481 496 571 586 781 796 1171 0
481 496 571 586 781 796 1186 0
481 496 571 586 781 1171 1186 0
481 496 571 586 796 1171 1186 0
481 496 571 781 796 1171 1186 0
481 496 586 781 796 1171 1186 0
481 571 586 781 796 1171 1186 0
496 571 586 781 796 1171 1186 0
-61 -67 -109 -115 -145 0
-61 -67 -109 -115 -151 0
-61 -67 -109 -115 -301 0
-61 -67 -109 -115 -307 0
-61 -67 -109 -145 -151 0
-61 -67 -109 -145 -301 0
-61 -67 -109 -145 -307 0
-61 -67 -109 -151 -301 0
-61 -67 -109 -151 -307 0
-61 -67 -109 -301 -307 0
-61 -67 -115 -145 -151 0
-61 -67 -115 -145 -301 0
-61 -67 -115 -145 -307 0
-61 -67 -115 -151 -301 0
-61 -67 -115 -151 -307 0
-61 -67 -115 -301 -307 0
-61 -67 -145 -151 -301 0
-61 -67 -145 -151 -307 0
-61 -67 -145 -301 -307 0
-61 -67 -151 -301 -307 0
-61 -109 -115 -145 -151 0
-61 -109 -115 -145 -301 0
-61 -109 -115 -145 -307 0
-61 -109 -115 -151 -301 0
-61 -109 -115 -151 -307 0
-61 -109 -115 -301 -307 0
-61 -109 -145 -151 -301 0
-61 -109 -145 -151 -307 0
-61 -109 -145 -301 -307 0
-61 -109 -151 -301 -307 0
-61 -115 -145 -151 -301 0
-61 -115 -145 -151 -307 0
-61 -115 -145 -301 -307 0
-61 -115 -151 -301 -307 0
-61 -145 -151 -301 -307 0
-67 -109 -115 -145 -151 0
-67 -109 -115 -145 -301 0
-67 -109 -115 -145 -307 0
-67 -109 -115 -151 -301 0
-67 -109 -115 -151 -307 0
-67 -109 -115 -301 -307 0
-67 -109 -145 -151 -301 0
-67 -109 -145 -151 -307 0
-67 -109 -145 -301 -307 0
-67 -109 -151 -301 -307 0
-67 -115 -145 -151 -301 0
-67 -115 -145 -151 -307 0
-67 -115 -145 -301 -307 0
-67 -115 -151 -301 -307 0
-67 -145 -151 -301 -307 0
-109 -115 -145 -151 -301 0
-109 -115 -145 -151 -307 0
-109 -115 -145 -301 -307 0
-109 -115 -151 -301 -307 0
-109 -145 -151 -301 -307 0
-115 -145 -151 -301 -307 0
61 67 109 115 145 0
61 67 109 115 151 0
61 67 109 115 301 0
61 67 109 115 307 0
61 67 109 145 151 0
61 67 109 145 301 0
61 67 109 145 307 0
61 67 109 151 301 0
61 67 109 151 307 0
61 67 109 301 307 0
61 67 115 145 151 0
61 67 115 145 301 0
61 67 115 145 307 0
61 67 115 151 301 0
61 67 115 151 307 0
61 67 115 301 307 0
61 67 145 151 301 0
61 67 145 151 307 0
61 67 145 301 307 0
61 67 151 301 307 0
61 109 115 145 151 0
61 109 115 145 301 0
61 109 115 145 307 0
61 109 115 151 301 0
61 109 115 151 307 0
61 109 115 301 307 0
61 109 145 151 301 0
61 109 145 151 307 0
61 109 145 301 307 0
61 109 151 301 307 0
61 115 145 151 301 0
61 115 145 151 307 0
61 115 145 301 307 0
61 115 151 301 307 0
61 145 151 301 307 0
67 109 115 145 151 0
67 109 115 145 301 0
67 109 115 145 307 0
67 109 115 151 301 0
67 109 115 151 307 0
67 109 115 301 307 0
67 109 145 151 301 0
67 109 145 151 307 0
67 109 145 301 307 0
67 109 151 301 307 0
67 115 145 151 301 0
67 115 145 151 307 0
67 115 145 301 307 0
67 115 151 301 307 0
67 145 151 301 307 0
109 115 145 151 301 0
109 115 145 151 307 0
109 115 145 301 307 0
109 115 151 301 307 0
109 145 151 301 307 0
115 145 151 301 307 0
-62 -68 -110 -116 -146 0
-62 -68 -110 -116 -152 0
-62 -68 -110 -116 -302 0
-62 -68 -110 -116 -308 0
-62 -68 -110 -146 -152 0
-62 -68 -110 -146 -302 0
-62 -68 -110 -146 -308 0
-62 -68 -110 -152 -302 0
-62 -68 -110 -152 -308 0
-62 -68 -110 -302 -308 0
-62 -68 -116 -146 -152 0
-62 -68 -116 -146 -302 0
-62 -68 -116 -146 -308 0
-62 -68 -116 -152 -302 0
-62 -68 -116 -152 -308 0
-62 -68 -116 -302 -308 0
-62 -68 -146 -152 -302 0
-62 -68 -146 -152 -308 0
-62 -68 -146 -302 -308 0
-62 -68 -152 -302 -308 0
-62 -110 -116 -146 -152 0
-62 -110 -116 -146 -302 0
-62 -110 -116 -146 -308 0
-62 -110 -116 -152 -302 0
-62 -110 -116 -152 -308 0
-62 -110 -116 -302 -308 0
-62 -110 -146 -152 -302 0
-62 -110 -146 -152 -308 0
-62 -110 -146 -302 -308 0
-62 -110 -152 -302 -308 0
-62 -116 -146 -152 -302 0
-62 -116 -146 -152 -308 0
-62 -116 -146 -302 -308 0
-62 -116 -152 -302 -308 0
-62 -146 -152 -302 -308 0
-68 -110 -116 -146 -152 0
-68 -110 -116 -146 -302 0
-68 -110 -116 -146 -308 0
-68 -110 -116 -152 -302 0
-68 -110 -116 -152 -308 0
-68 -110 -116 -302 -308 0
-68 -110 -146 -152 -302 0
-68 -110 -146 -152 -308 0
-68 -110 -146 -302 -308 0
-68 -110 -152 -302 -308 0
-68 -116 -146 -152 -302 0
-68 -116 -146 -152 -308 0
-68 -116 -146 -302 -308 0
-68 -116 -152 -302 -308 0
-68 -146 -152 -302 -308 0
-110 -116 -146 -152 -302 0
-110 -116 -146 -152 -308 0
-110 -116 -146 -302 -308 0
-110 -116 -152 -302 -308 0
-110 -146 -152 -302 -308 0
-116 -146 -152 -302 -308 0
62 68 110 116 146 0
62 68 110 116 152 0
62 68 110 116 302 0
62 68 110 116 308 0
62 68 110 146 152 0
62 68 110 146 302 0
62 68 110 146 308 0
62 68 110 152 302 0
62 68 110 152 308 0
62 68 110 302 308 0
62 68 116 146 152 0
62 68 116 146 302 0
62 68 116 146 308 0
62 68 116 152 302 0
62 68 116 152 308 0
62 68 116 302 308 0
62 68 146 152 302 0
62 68 146 152 308 0
62 68 146 302 308 0
62 68 152 302 308 0
62 110 116 146 152 0
62 110 116 146 302 0
62 110 116 146 308 0
62 110 116 152 302 0
62 110 116 152 308 0
62 110 116 302 308 0
62 110 146 152 302 0
62 110 146 152 308 0
62 110 146 302 308 0
62 110 152 302 308 0
62 116 146 152 302 0
62 116 146 152 308 0
62 116 146 302 308 0
62 116 152 302 308 0
62 146 152 302 308 0
68 110 116 146 152 0
68 110 116 146 302 0
68 110 116 146 308 0
68 110 116 152 302 0
68 110 116 152 308 0
68 110 116 302 308 0
68 110 146 152 302 0
68 110 146 152 308 0
68 110 146 302 308 0
68 110 152 302 308 0
68 116 146 152 302 0
68 116 146 152 308 0
68 116 146 302 308 0
68 116 152 302 308 0
68 146 152 302 308 0
110 116 146 152 302 0
110 116 146 152 308 0
110 116 146 302 308 0
110 116 152 302 308 0
110 146 152 302 308 0
116 146 152 302 308 0
-511 -526 -631 0
-511 -526 -646 0
-511 -526 -721 0
-511 -526 -736 0
-511 -526 -1111 0
-511 -526 -1126 0
-511 -631 -646 0
-511 -631 -721 0
-511 -631 -736 0
-511 -631 -1111 0
-511 -631 -1126 0
-511 -646 -721 0
-511 -646 -736 0
-511 -646 -1111 0
-511 -646 -1126 0
-511 -721 -736 0
-511 -721 -1111 0
-511 -721 -1126 0
-511 -736 -1111 0
-511 -736 -1126 0
-511 -1111 -1126 0
-526 -631 -646 0
-526 -631 -721 0
-526 -631 -736 0
-526 -631 -1111 0
-526 -631 -1126 0
-526 -646 -721 0
-526 -646 -736 0
-526 -646 -1111 0
-526 -646 -1126 0
-526 -721 -736 0
-526 -721 -1111 0
-526 -721 -1126 0
-526 -736 -1111 0
-526 -736 -1126 0
-526 -1111 -1126 0
-631 -646 -721 0
-631 -646 -736 0
-631 -646 -1111 0
-631 -646 -1126 0
-631 -721 -736 0
-631 -721 -1111 0
-631 -721 -1126 0
-631 -736 -1111 0
-631 -736 -1126 0
-631 -1111 -1126 0
-646 -721 -736 0
-646 -721 -1111 0
-646 -721 -1126 0
-646 -736 -1111 0
-646 -736 -1126 0
-646 -1111 -1126 0
-721 -736 -1111 0
-721 -736 -1126 0
-721 -1111 -1126 0
-736 -1111 -1126 0
511 526 631 646 721 736 1111 0
511 526 631 646 721 736 1126 0
511 526 631 646 721 1111 1126 0
511 526 631 646 736 1111 1126 0
511 526 631 721 736 1111 1126 0
511 526 646 721 736 1111 1126 0
511 631 646 721 736 1111 1126 0
526 631 646 721 736 1111 1126 0
-217 -223 -241 0
-217 -223 -247 0
-217 -241 -247 0
-223 -241 -247 0
217 223 241 0
217 223 247 0
217 241 247 0
223 241 247 0
-218 -224 -242 0
-218 -224 -248 0
-218 -242 -248 0
-224 -242 -248 0
218 224 242 0
218 224 248 0
218 242 248 0
224 242 248 0
-901 -916 0
-901 -961 0
-901 -976 0
-916 -961 0
-916 -976 0
-961 -976 0
901 916 961 976 0
-97 -103 -121 0
-97 -103 -127 0
-97 -121 -127 0
-103 -121 -127 0
97 103 121 0
97 103 127 0
97 121 127 0
103 121 127 0
-99 -105 -123 0
-99 -105 -129 0
-99 -123 -129 0
-105 -123 -129 0
99 105 123 0
99 105 129 0
99 123 129 0
105 123 129 0
-602 -617 0
-602 -662 0
-602 -677 0
-617 -662 0
-617 -677 0
-662 -677 0
602 617 662 677 0
-13 -19 -181 -187 -277 0
-13 -19 -181 -187 -283 0
-13 -19 -181 -187 -337 0
-13 -19 -181 -187 -343 0
-13 -19 -181 -277 -283 0
-13 -19 -181 -277 -337 0
-13 -19 -181 -277 -343 0
-13 -19 -181 -283 -337 0
-13 -19 -181 -283 -343 0
-13 -19 -181 -337 -343 0
-13 -19 -187 -277 -283 0
-13 -19 -187 -277 -337 0
-13 -19 -187 -277 -343 0
-13 -19 -187 -283 -337 0
-13 -19 -187 -283 -343 0
-13 -19 -187 -337 -343 0
-13 -19 -277 -283 -337 0
-13 -19 -277 -283 -343 0
-13 -19 -277 -337 -343 0
-13 -19 -283 -337 -343 0
-13 -181 -187 -277 -283 0
-13 -181 -187 -277 -337 0
-13 -181 -187 -277 -343 0
-13 -181 -187 -283 -337 0
-13 -181 -187 -283 -343 0
-13 -181 -187 -337 -343 0
-13 -181 -277 -283 -337 0
-13 -181 -277 -283 -343 0
-13 -181 -277 -337 -343 0
-13 -181 -283 -337 -343 0
-13 -187 -277 -283 -337 0
-13 -187 -277 -283 -343 0
-13 -187 -277 -337 -343 0
-13 -187 -283 -337 -343 0
-13 -277 -283 -337 -343 0
-19 -181 -187 -277 -283 0
-19 -181 -187 -277 -337 0
-19 -181 -187 -277 -343 0
-19 -181 -187 -283 -337 0
-19 -181 -187 -283 -343 0
-19 -181 -187 -337 -343 0
-19 -181 -277 -283 -337 0
-19 -181 -277 -283 -343 0
-19 -181 -277 -337 -343 0
-19 -181 -283 -337 -343 0
-19 -187 -277 -283 -337 0
-19 -187 -277 -283 -343 0
-19 -187 -277 -337 -343 0
-19 -187 -283 -337 -343 0
-19 -277 -283 -337 -343 0
-181 -187 -277 -283 -337 0
-181 -187 -277 -283 -343 0
-181 -187 -277 -337 -343 0
-181 -187 -283 -337 -343 0
-181 -277 -283 -337 -343 0
-187 -277 -283 -337 -343 0
13 19 181 187 277 0
13 19 181 187 283 0
13 19 181 187 337 0
13 19 181 187 343 0
13 19 181 277 283 0
13 19 181 277 337 0
13 19 181 277 343 0
13 19 181 283 337 0
13 19 181 283 343 0
13 19 181 337 343 0
13 19 187 277 283 0
13 19 187 277 337 0
13 19 187 277 343 0
13 19 187 283 337 0
13 19 187 283 343 0
13 19 187 337 343 0
13 19 277 283 337 0
13 19 277 283 343 0
13 19 277 337 343 0
13 19 283 337 343 0
13 181 187 277 283 0
13 181 187 277 337 0
13 181 187 277 343 0
13 181 187 283 337 0
13 181 187 283 343 0
13 181 187 337 343 0
13 181 277 283 337 0
13 181 277 283 343 0
13 181 277 337 343 0
13 181 283 337 343 0
13 187 277 283 337 0
13 187 277 283 343 0
13 187 277 337 343 0
13 187 283 337 343 0
13 277 283 337 343 0
19 181 187 277 283 0
19 181 187 277 337 0
19 181 187 277 343 0
19 181 187 283 337 0
19 181 187 283 343 0
19 181 187 337 343 0
19 181 277 283 337 0
19 181 277 283 343 0
19 181 277 337 343 0
19 181 283 337 343 0
19 187 277 283 337 0
19 187 277 283 343 0
19 187 277 337 343 0
19 187 283 337 343 0
19 277 283 337 343 0
181 187 277 283 337 0
181 187 277 283 343 0
181 187 277 337 343 0
181 187 283 337 343 0
181 277 283 337 343 0
187 277 283 337 343 0
-15 -21 -183 -189 -279 0
-15 -21 -183 -189 -285 0
-15 -21 -183 -189 -339 0
-15 -21 -183 -189 -345 0
-15 -21 -183 -279 -285 0
-15 -21 -183 -279 -339 0
-15 -21 -183 -279 -345 0
-15 -21 -183 -285 -339 0
-15 -21 -183 -285 -345 0
-15 -21 -183 -339 -345 0
-15 -21 -189 -279 -285 0
-15 -21 -189 -279 -339 0
-15 -21 -189 -279 -345 0
-15 -21 -189 -285 -339 0
-15 -21 -189 -285 -345 0
-15 -21 -189 -339 -345 0
-15 -21 -279 -285 -339 0
-15 -21 -279 -285 -345 0
-15 -21 -279 -339 -345 0
-15 -21 -285 -339 -345 0
-15 -183 -189 -279 -285 0
-15 -183 -189 -279 -339 0
-15 -183 -189 -279 -345 0
-15 -183 -189 -285 -339 0
-15 -183 -189 -285 -345 0
-15 -183 -189 -339 -345 0
-15 -183 -279 -285 -339 0
-15 -183 -279 -285 -345 0
-15 -183 -279 -339 -345 0
-15 -183 -285 -339 -345 0
-15 -189 -279 -285 -339 0
-15 -189 -279 -285 -345 0
-15 -189 -279 -339 -345 0
-15 -189 -285 -339 -345 0
-15 -279 -285 -339 -345 0
-21 -183 -189 -279 -285 0
-21 -183 -189 -279 -339 0
-21 -183 -189 -279 -345 0
-21 -183 -189 -285 -339 0
-21 -183 -189 -285 -345 0
-21 -183 -189 -339 -345 0
-21 -183 -279 -285 -339 0
-21 -183 -279 -285 -345 0
-21 -183 -279 -339 -345 0
-21 -183 -285 -339 -345 0
-21 -189 -279 -285 -339 0
-21 -189 -279 -285 -345 0
-21 -189 -279 -339 -345 0
-21 -189 -285 -339 -345 0
-21 -279 -285 -339 -345 0
-183 -189 -279 -285 -339 0
-183 -189 -279 -285 -345 0
-183 -189 -279 -339 -345 0
-183 -189 -285 -339 -345 0
-183 -279 -285 -339 -345 0
-189 -279 -285 -339 -345 0
15 21 183 189 279 0
15 21 183 189 285 0
15 21 183 189 339 0
15 21 183 189 345 0
15 21 183 279 285 0
15 21 183 279 339 0
15 21 183 279 345 0
15 21 183 285 339 0
15 21 183 285 345 0
15 21 183 339 345 0
15 21 189 279 285 0
15 21 189 279 339 0
15 21 189 279 345 0
15 21 189 285 339 0
15 21 189 285 345 0
15 21 189 339 345 0
15 21 279 285 339 0
15 21 279 285 345 0
15 21 279 339 345 0
15 21 285 339 345 0
15 183 189 279 285 0
15 183 189 279 339 0
15 183 189 279 345 0
15 183 189 285 339 0
15 183 189 285 345 0
15 183 189 339 345 0
15 183 279 285 339 0
15 183 279 285 345 0
15 183 279 339 345 0
15 183 285 339 345 0
15 189 279 285 339 0
15 189 279 285 345 0
15 189 279 339 345 0
15 189 285 339 345 0
15 279 285 339 345 0
21 183 189 279 285 0
21 183 189 279 339 0
21 183 189 279 345 0
21 183 189 285 339 0
21 183 189 285 345 0
21 183 189 339 345 0
21 183 279 285 339 0
21 183 279 285 345 0
21 183 279 339 345 0
21 183 285 339 345 0
21 189 279 285 339 0
21 189 279 285 345 0
21 189 279 339 345 0
21 189 285 339 345 0
21 279 285 339 345 0
183 189 279 285 339 0
183 189 279 285 345 0
183 189 279 339 345 0
183 189 285 339 345 0
183 279 285 339 345 0
189 279 285 339 345 0
-392 -407 -812 0
-392 -407 -827 0
-392 -407 -1052 0
-392 -407 -1067 0
-392 -407 -1202 0
-392 -407 -1217 0
-392 -812 -827 0
-392 -812 -1052 0
-392 -812 -1067 0
-392 -812 -1202 0
-392 -812 -1217 0
-392 -827 -1052 0
-392 -827 -1067 0
-392 -827 -1202 0
-392 -827 -1217 0
-392 -1052 -1067 0
-392 -1052 -1202 0
-392 -1052 -1217 0
-392 -1067 -1202 0
-392 -1067 -1217 0
-392 -1202 -1217 0
-407 -812 -827 0
-407 -812 -1052 0
-407 -812 -1067 0
-407 -812 -1202 0
-407 -812 -1217 0
-407 -827 -1052 0
-407 -827 -1067 0
-407 -827 -1202 0
-407 -827 -1217 0
-407 -1052 -1067 0
-407 -1052 -1202 0
-407 -1052 -1217 0
-407 -1067 -1202 0
-407 -1067 -1217 0
-407 -1202 -1217 0
-812 -827 -1052 0
-812 -827 -1067 0
-812 -827 -1202 0
-812 -827 -1217 0
-812 -1052 -1067 0
-812 -1052 -1202 0
-812 -1052 -1217 0
-812 -1067 -1202 0
-812 -1067 -1217 0
-812 -1202 -1217 0
-827 -1052 -1067 0
-827 -1052 -1202 0
-827 -1052 -1217 0
-827 -1067 -1202 0
-827 -1067 -1217 0
-827 -1202 -1217 0
-1052 -1067 -1202 0
-1052 -1067 -1217 0
-1052 -1202 -1217 0
-1067 -1202 -1217 0
392 407 812 827 1052 1067 1202 0
392 407 812 827 1052 1067 1217 0
392 407 812 827 1052 1202 1217 0
392 407 812 827 1067 1202 1217 0
392 407 812 1052 1067 1202 1217 0
392 407 827 1052 1067 1202 1217 0
392 812 827 1052 1067 1202 1217 0
407 812 827 1052 1067 1202 1217 0
-1 -7 -205 -211 -253 0
-1 -7 -205 -211 -259 0
-1 -7 -205 -211 -313 0
-1 -7 -205 -211 -319 0
-1 -7 -205 -253 -259 0
-1 -7 -205 -253 -313 0
-1 -7 -205 -253 -319 0
-1 -7 -205 -259 -313 0
-1 -7 -205 -259 -319 0
-1 -7 -205 -313 -319 0
-1 -7 -211 -253 -259 0
-1 -7 -211 -253 -313 0
-1 -7 -211 -253 -319 0
-1 -7 -211 -259 -313 0
-1 -7 -211 -259 -319 0
-1 -7 -211 -313 -319 0
-1 -7 -253 -259 -313 0
-1 -7 -253 -259 -319 0
-1 -7 -253 -313 -319 0
-1 -7 -259 -313 -319 0
-1 -205 -211 -253 -259 0
-1 -205 -211 -253 -313 0
-1 -205 -211 -253 -319 0
-1 -205 -211 -259 -313 0
-1 -205 -211 -259 -319 0
-1 -205 -211 -313 -319 0
-1 -205 -253 -259 -313 0
-1 -205 -253 -259 -319 0
-1 -205 -253 -313 -319 0
-1 -205 -259 -313 -319 0
-1 -211 -253 -259 -313 0
-1 -211 -253 -259 -319 0
-1 -211 -253 -313 -319 0
-1 -211 -259 -313 -319 0
-1 -253 -259 -313 -319 0
-7 -205 -211 -253 -259 0
-7 -205 -211 -253 -313 0
-7 -205 -211 -253 -319 0
-7 -205 -211 -259 -313 0
-7 -205 -211 -259 -319 0
-7 -205 -211 -313 -319 0
-7 -205 -253 -259 -313 0
-7 -205 -253 -259 -319 0
-7 -205 -253 -313 -319 0
-7 -205 -259 -313 -319 0
-7 -211 -253 -259 -313 0
-7 -211 -253 -259 -319 0
-7 -211 -253 -313 -319 0
-7 -211 -259 -313 -319 0
-7 -253 -259 -313 -319 0
-205 -211 -253 -259 -313 0
-205 -211 -253 -259 -319 0
-205 -211 -253 -313 -319 0
-205 -211 -259 -313 -319 0
-205 -253 -259 -313 -319 0
-211 -253 -259 -313 -319 0
1 7 205 211 253 0
1 7 205 211 259 0
1 7 205 211 313 0
1 7 205 211 319 0
1 7 205 253 259 0
1 7 205 253 313 0
1 7 205 253 319 0
1 7 205 259 313 0
1 7 205 259 319 0
1 7 205 313 319 0
1 7 211 253 259 0
1 7 211 253 313 0
1 7 211 253 319 0
1 7 211 259 313 0
1 7 211 259 319 0
1 7 211 313 319 0
1 7 253 259 313 0
1 7 253 259 319 0
1 7 253 313 319 0
1 7 259 313 319 0
1 205 211 253 259 0
1 205 211 253 313 0
1 205 211 253 319 0
1 205 211 259 313 0
1 205 211 259 319 0
1 205 211 313 319 0
1 205 253 259 313 0
1 205 253 259 319 0
1 205 253 313 319 0
1 205 259 313 319 0
1 211 253 259 313 0
1 211 253 259 319 0
1 211 253 313 319 0
1 211 259 313 319 0
1 253 259 313 319 0
7 205 211 253 259 0
7 205 211 253 313 0
7 205 211 253 319 0
7 205 211 259 313 0
7 205 211 259 319 0
7 205 211 313 319 0
7 205 253 259 313 0
7 205 253 259 319 0
7 205 253 313 319 0
7 205 259 313 319 0
7 211 253 259 313 0
7 211 253 259 319 0
7 211 253 313 319 0
7 211 259 313 319 0
7 253 259 313 319 0
205 211 253 259 313 0
205 211 253 259 319 0
205 211 253 313 319 0
205 211 259 313 319 0
205 253 259 313 319 0
211 253 259 313 319 0
-3 -9 -207 -213 -255 0
-3 -9 -207 -213 -261 0
-3 -9 -207 -213 -315 0
-3 -9 -207 -213 -321 0
-3 -9 -207 -255 -261 0
-3 -9 -207 -255 -315 0
-3 -9 -207 -255 -321 0
-3 -9 -207 -261 -315 0
-3 -9 -207 -261 -321 0
-3 -9 -207 -315 -321 0
-3 -9 -213 -255 -261 0
-3 -9 -213 -255 -315 0
-3 -9 -213 -255 -321 0
-3 -9 -213 -261 -315 0
-3 -9 -213 -261 -321 0
-3 -9 -213 -315 -321 0
-3 -9 -255 -261 -315 0
-3 -9 -255 -261 -321 0
-3 -9 -255 -315 -321 0
-3 -9 -261 -315 -321 0
-3 -207 -213 -255 -261 0
-3 -207 -213 -255 -315 0
-3 -207 -213 -255 -321 0
-3 -207 -213 -261 -315 0
-3 -207 -213 -261 -321 0
-3 -207 -213 -315 -321 0
-3 -207 -255 -261 -315 0
-3 -207 -255 -261 -321 0
-3 -207 -255 -315 -321 0
-3 -207 -261 -315 -321 0
-3 -213 -255 -261 -315 0
-3 -213 -255 -261 -321 0
-3 -213 -255 -315 -321 0
-3 -213 -261 -315 -321 0
-3 -255 -261 -315 -321 0
-9 -207 -213 -255 -261 0
-9 -207 -213 -255 -315 0
-9 -207 -213 -255 -321 0
-9 -207 -213 -261 -315 0
-9 -207 -213 -261 -321 0
-9 -207 -213 -315 -321 0
-9 -207 -255 -261 -315 0
-9 -207 -255 -261 -321 0
-9 -207 -255 -315 -321 0
-9 -207 -261 -315 -321 0
-9 -213 -255 -261 -315 0
-9 -213 -255 -261 -321 0
-9 -213 -255 -315 -321 0
-9 -213 -261 -315 -321 0
-9 -255 -261 -315 -321 0
-207 -213 -255 -261 -315 0
-207 -213 -255 -261 -321 0
-207 -213 -255 -315 -321 0
-207 -213 -261 -315 -321 0
-207 -255 -261 -315 -321 0
-213 -255 -261 -315 -321 0
3 9 207 213 255 0
3 9 207 213 261 0
3 9 207 213 315 0
3 9 207 213 321 0
3 9 207 255 261 0
3 9 207 255 315 0
3 9 207 255 321 0
3 9 207 261 315 0
3 9 207 261 321 0
3 9 207 315 321 0
3 9 213 255 261 0
3 9 213 255 315 0
3 9 213 255 321 0
3 9 213 261 315 0
3 9 213 261 321 0
3 9 213 315 321 0
3 9 255 261 315 0
3 9 255 261 321 0
3 9 255 315 321 0
3 9 261 315 321 0
3 207 213 255 261 0
3 207 213 255 315 0
3 207 213 255 321 0
3 207 213 261 315 0
3 207 213 261 321 0
3 207 213 315 321 0
3 207 255 261 315 0
3 207 255 261 321 0
3 207 255 315 321 0
3 207 261 315 321 0
3 213 255 261 315 0
3 213 255 261 321 0
3 213 255 315 321 0
3 213 261 315 321 0
3 255 261 315 321 0
9 207 213 255 261 0
9 207 213 255 315 0
9 207 213 255 321 0
9 207 213 261 315 0
9 207 213 261 321 0
9 207 213 315 321 0
9 207 255 261 315 0
9 207 255 261 321 0
9 207 255 315 321 0
9 207 261 315 321 0
9 213 255 261 315 0
9 213 255 261 321 0
9 213 255 315 321 0
9 213 261 315 321 0
9 255 261 315 321 0
207 213 255 261 315 0
207 213 255 261 321 0
207 213 255 315 321 0
207 213 261 315 321 0
207 255 261 315 321 0
213 255 261 315 321 0
-362 -377 -872 0
-362 -377 -887 0
-362 -377 -992 0
-362 -377 -1007 0
-362 -377 -1142 0
-362 -377 -1157 0
-362 -872 -887 0
-362 -872 -992 0
-362 -872 -1007 0
-362 -872 -1142 0
-362 -872 -1157 0
-362 -887 -992 0
-362 -887 -1007 0
-362 -887 -1142 0
-362 -887 -1157 0
-362 -992 -1007 0
-362 -992 -1142 0
-362 -992 -1157 0
-362 -1007 -1142 0
-362 -1007 -1157 0
-362 -1142 -1157 0
-377 -872 -887 0
-377 -872 -992 0
-377 -872 -1007 0
-377 -872 -1142 0
-377 -872 -1157 0
-377 -887 -992 0
-377 -887 -1007 0
-377 -887 -1142 0
-377 -887 -1157 0
-377 -992 -1007 0
-377 -992 -1142 0
-377 -992 -1157 0
-377 -1007 -1142 0
-377 -1007 -1157 0
-377 -1142 -1157 0
-872 -887 -992 0
-872 -887 -1007 0
-872 -887 -1142 0
-872 -887 -1157 0
-872 -992 -1007 0
-872 -992 -1142 0
-872 -992 -1157 0
-872 -1007 -1142 0
-872 -1007 -1157 0
-872 -1142 -1157 0
-887 -992 -1007 0
-887 -992 -1142 0
-887 -992 -1157 0
-887 -1007 -1142 0
-887 -1007 -1157 0
-887 -1142 -1157 0
-992 -1007 -1142 0
-992 -1007 -1157 0
-992 -1142 -1157 0
-1007 -1142 -1157 0
362 377 872 887 992 1007 1142 0
362 377 872 887 992 1007 1157 0
362 377 872 887 992 1142 1157 0
362 377 872 887 1007 1142 1157 0
362 377 872 992 1007 1142 1157 0
362 377 887 992 1007 1142 1157 0
362 872 887 992 1007 1142 1157 0
377 872 887 992 1007 1142 1157 0
-37 -43 -157 -163 -265 0
-37 -43 -157 -163 -271 0
-37 -43 -157 -163 -349 0
-37 -43 -157 -163 -355 0
-37 -43 -157 -265 -271 0
-37 -43 -157 -265 -349 0
-37 -43 -157 -265 -355 0
-37 -43 -157 -271 -349 0
-37 -43 -157 -271 -355 0
-37 -43 -157 -349 -355 0
-37 -43 -163 -265 -271 0
-37 -43 -163 -265 -349 0
-37 -43 -163 -265 -355 0
-37 -43 -163 -271 -349 0
-37 -43 -163 -271 -355 0
-37 -43 -163 -349 -355 0
-37 -43 -265 -271 -349 0
-37 -43 -265 -271 -355 0
-37 -43 -265 -349 -355 0
-37 -43 -271 -349 -355 0
-37 -157 -163 -265 -271 0
-37 -157 -163 -265 -349 0
-37 -157 -163 -265 -355 0
-37 -157 -163 -271 -349 0
-37 -157 -163 -271 -355 0
-37 -157 -163 -349 -355 0
-37 -157 -265 -271 -349 0
-37 -157 -265 -271 -355 0
-37 -157 -265 -349 -355 0
-37 -157 -271 -349 -355 0
-37 -163 -265 -271 -349 0
-37 -163 -265 -271 -355 0
-37 -163 -265 -349 -355 0
-37 -163 -271 -349 -355 0
-37 -265 -271 -349 -355 0
-43 -157 -163 -265 -271 0
-43 -157 -163 -265 -349 0
-43 -157 -163 -265 -355 0
-43 -157 -163 -271 -349 0
-43 -157 -163 -271 -355 0
-43 -157 -163 -349 -355 0
-43 -157 -265 -271 -349 0
-43 -157 -265 -271 -355 0
-43 -157 -265 -349 -355 0
-43 -157 -271 -349 -355 0
-43 -163 -265 -271 -349 0
-43 -163 -265 -271 -355 0
-43 -163 -265 -349 -355 0
-43 -163 -271 -349 -355 0
-43 -265 -271 -349 -355 0
-157 -163 -265 -271 -349 0
-157 -163 -265 -271 -355 0
-157 -163 -265 -349 -355 0
-157 -163 -271 -349 -355 0
-157 -265 -271 -349 -355 0
-163 -265 -271 -349 -355 0
37 43 157 163 265 0
37 43 157 163 271 0
37 43 157 163 349 0
37 43 157 163 355 0
37 43 157 265 271 0
37 43 157 265 349 0
37 43 157 265 355 0
37 43 157 271 349 0
37 43 157 271 355 0
37 43 157 349 355 0
37 43 163 265 271 0
37 43 163 265 349 0
37 43 163 265 355 0
37 43 163 271 349 0
37 43 163 271 355 0
37 43 163 349 355 0
37 43 265 271 349 0
37 43 265 271 355 0
37 43 265 349 355 0
37 43 271 349 355 0
37 157 163 265 271 0
37 157 163 265 349 0
37 157 163 265 355 0
37 157 163 271 349 0
37 157 163 271 355 0
37 157 163 349 355 0
37 157 265 271 349 0
37 157 265 271 355 0
37 157 265 349 355 0
37 157 271 349 355 0
37 163 265 271 349 0
37 163 265 271 355 0
37 163 265 349 355 0
37 163 271 349 355 0
37 265 271 349 355 0
43 157 163 265 271 0
43 157 163 265 349 0
43 157 163 265 355 0
43 157 163 271 349 0
43 157 163 271 355 0
43 157 163 349 355 0
43 157 265 271 349 0
43 157 265 271 355 0
43 157 265 349 355 0
43 157 271 349 355 0
43 163 265 271 349 0
43 163 265 271 355 0
43 163 265 349 355 0
43 163 271 349 355 0
43 265 271 349 355 0
157 163 265 271 349 0
157 163 265 271 355 0
157 163 265 349 355 0
157 163 271 349 355 0
157 265 271 349 355 0
163 265 271 349 355 0
-39 -45 -159 -165 -267 0
-39 -45 -159 -165 -273 0
-39 -45 -159 -165 -351 0
-39 -45 -159 -165 -357 0
-39 -45 -159 -267 -273 0
-39 -45 -159 -267 -351 0
-39 -45 -159 -267 -357 0
-39 -45 -159 -273 -351 0
-39 -45 -159 -273 -357 0
-39 -45 -159 -351 -357 0
-39 -45 -165 -267 -273 0
-39 -45 -165 -267 -351 0
-39 -45 -165 -267 -357 0
-39 -45 -165 -273 -351 0
-39 -45 -165 -273 -357 0
-39 -45 -165 -351 -357 0
-39 -45 -267 -273 -351 0
-39 -45 -267 -273 -357 0
-39 -45 -267 -351 -357 0
-39 -45 -273 -351 -357 0
-39 -159 -165 -267 -273 0
-39 -159 -165 -267 -351 0
-39 -159 -165 -267 -357 0
-39 -159 -165 -273 -351 0
-39 -159 -165 -273 -357 0
-39 -159 -165 -351 -357 0
-39 -159 -267 -273 -351 0
-39 -159 -267 -273 -357 0
-39 -159 -267 -351 -357 0
-39 -159 -273 -351 -357 0
-39 -165 -267 -273 -351 0
-39 -165 -267 -273 -357 0
-39 -165 -267 -351 -357 0
-39 -165 -273 -351 -357 0
-39 -267 -273 -351 -357 0
-45 -159 -165 -267 -273 0
-45 -159 -165 -267 -351 0
-45 -159 -165 -267 -357 0
-45 -159 -165 -273 -351 0
-45 -159 -165 -273 -357 0
-45 -159 -165 -351 -357 0
-45 -159 -267 -273 -351 0
-45 -159 -267 -273 -357 0
-45 -159 -267 -351 -357 0
-45 -159 -273 -351 -357 0
-45 -165 -267 -273 -351 0
-45 -165 -267 -273 -357 0
-45 -165 -267 -351 -357 0
-45 -165 -273 -351 -357 0
-45 -267 -273 -351 -357 0
-159 -165 -267 -273 -351 0
-159 -165 -267 -273 -357 0
-159 -165 -267 -351 -357 0
-159 -165 -273 -351 -357 0
-159 -267 -273 -351 -357 0
-165 -267 -273 -351 -357 0
39 45 159 165 267 0
39 45 159 165 273 0
39 45 159 165 351 0
39 45 159 165 357 0
39 45 159 267 273 0
39 45 159 267 351 0
39 45 159 267 357 0
39 45 159 273 351 0
39 45 159 273 357 0
39 45 159 351 357 0
39 45 165 267 273 0
39 45 165 267 351 0
39 45 165 267 357 0
39 45 165 273 351 0
39 45 165 273 357 0
39 45 165 351 357 0
39 45 267 273 351 0
39 45 267 273 357 0
39 45 267 351 357 0
39 45 273 351 357 0
39 159 165 267 273 0
39 159 165 267 351 0
39 159 165 267 357 0
39 159 165 273 351 0
39 159 165 273 357 0
39 159 165 351 357 0
39 159 267 273 351 0
39 159 267 273 357 0
39 159 267 351 357 0
39 159 273 351 357 0
39 165 267 273 351 0
39 165 267 273 357 0
39 165 267 351 357 0
39 165 273 351 357 0
39 267 273 351 357 0
45 159 165 267 273 0
45 159 165 267 351 0
45 159 165 267 357 0
45 159 165 273 351 0
45 159 165 273 357 0
45 159 165 351 357 0
45 159 267 273 351 0
45 159 267 273 357 0
45 159 267 351 357 0
45 159 273 351 357 0
45 165 267 273 351 0
45 165 267 273 357 0
45 165 267 351 357 0
45 165 273 351 357 0
45 267 273 351 357 0
159 165 267 273 351 0
159 165 267 273 357 0
159 165 267 351 357 0
159 165 273 351 357 0
159 267 273 351 357 0
165 267 273 351 357 0
-452 -467 -752 0
-452 -467 -767 0
-452 -467 -1022 0
-452 -467 -1037 0
-452 -467 -1232 0
-452 -467 -1247 0
-452 -752 -767 0
-452 -752 -1022 0
-452 -752 -1037 0
-452 -752 -1232 0
-452 -752 -1247 0
-452 -767 -1022 0
-452 -767 -1037 0
-452 -767 -1232 0
-452 -767 -1247 0
-452 -1022 -1037 0
-452 -1022 -1232 0
-452 -1022 -1247 0
-452 -1037 -1232 0
-452 -1037 -1247 0
-452 -1232 -1247 0
-467 -752 -767 0
-467 -752 -1022 0
-467 -752 -1037 0
-467 -752 -1232 0
-467 -752 -1247 0
-467 -767 -1022 0
-467 -767 -1037 0
-467 -767 -1232 0
-467 -767 -1247 0
-467 -1022 -1037 0
-467 -1022 -1232 0
-467 -1022 -1247 0
-467 -1037 -1232 0
-467 -1037 -1247 0
-467 -1232 -1247 0
-752 -767 -1022 0
-752 -767 -1037 0
-752 -767 -1232 0
-752 -767 -1247 0
-752 -1022 -1037 0
-752 -1022 -1232 0
-752 -1022 -1247 0
-752 -1037 -1232 0
-752 -1037 -1247 0
-752 -1232 -1247 0
-767 -1022 -1037 0
-767 -1022 -1232 0
-767 -1022 -1247 0
-767 -1037 -1232 0
-767 -1037 -1247 0
-767 -1232 -1247 0
-1022 -1037 -1232 0
-1022 -1037 -1247 0
-1022 -1232 -1247 0
-1037 -1232 -1247 0
452 467 752 767 1022 1037 1232 0
452 467 752 767 1022 1037 1247 0
452 467 752 767 1022 1232 1247 0
452 467 752 767 1037 1232 1247 0
452 467 752 1022 1037 1232 1247 0
452 467 767 1022 1037 1232 1247 0
452 752 767 1022 1037 1232 1247 0
467 752 767 1022 1037 1232 1247 0
-73 -79 -133 0
-73 -79 -139 0
-73 -133 -139 0
-79 -133 -139 0
73 79 133 0
73 79 139 0
73 133 139 0
79 133 139 0
-75 -81 -135 0
-75 -81 -141 0
-75 -135 -141 0
-81 -135 -141 0
75 81 135 0
75 81 141 0
75 135 141 0
81 135 141 0
-542 -557 0
-542 -692 0
-542 -707 0
-557 -692 0
-557 -707 0
-692 -707 0
542 557 692 707 0
-25 -31 -193 -199 -229 0
-25 -31 -193 -199 -235 0
-25 -31 -193 -199 -289 0
-25 -31 -193 -199 -295 0
-25 -31 -193 -229 -235 0
-25 -31 -193 -229 -289 0
-25 -31 -193 -229 -295 0
-25 -31 -193 -235 -289 0
-25 -31 -193 -235 -295 0
-25 -31 -193 -289 -295 0
-25 -31 -199 -229 -235 0
-25 -31 -199 -229 -289 0
-25 -31 -199 -229 -295 0
-25 -31 -199 -235 -289 0
-25 -31 -199 -235 -295 0
-25 -31 -199 -289 -295 0
-25 -31 -229 -235 -289 0
-25 -31 -229 -235 -295 0
-25 -31 -229 -289 -295 0
-25 -31 -235 -289 -295 0
-25 -193 -199 -229 -235 0
-25 -193 -199 -229 -289 0
-25 -193 -199 -229 -295 0
-25 -193 -199 -235 -289 0
-25 -193 -199 -235 -295 0
-25 -193 -199 -289 -295 0
-25 -193 -229 -235 -289 0
-25 -193 -229 -235 -295 0
-25 -193 -229 -289 -295 0
-25 -193 -235 -289 -295 0
-25 -199 -229 -235 -289 0
-25 -199 -229 -235 -295 0
-25 -199 -229 -289 -295 0
-25 -199 -235 -289 -295 0
-25 -229 -235 -289 -295 0
-31 -193 -199 -229 -235 0
-31 -193 -199 -229 -289 0
-31 -193 -199 -229 -295 0
-31 -193 -199 -235 -289 0
-31 -193 -199 -235 -295 0
-31 -193 -199 -289 -295 0
-31 -193 -229 -235 -289 0
-31 -193 -229 -235 -295 0
-31 -193 -229 -289 -295 0
-31 -193 -235 -289 -295 0
-31 -199 -229 -235 -289 0
-31 -199 -229 -235 -295 0
-31 -199 -229 -289 -295 0
-31 -199 -235 -289 -295 0
-31 -229 -235 -289 -295 0
-193 -199 -229 -235 -289 0
-193 -199 -229 -235 -295 0
-193 -199 -229 -289 -295 0
-193 -199 -235 -289 -295 0
-193 -229 -235 -289 -295 0
-199 -229 -235 -289 -295 0
25 31 193 199 229 0
25 31 193 199 235 0
25 31 193 199 289 0
25 31 193 199 295 0
25 31 193 229 235 0
25 31 193 229 289 0
25 31 193 229 295 0
25 31 193 235 289 0
25 31 193 235 295 0
25 31 193 289 295 0
25 31 199 229 235 0
25 31 199 229 289 0
25 31 199 229 295 0
25 31 199 235 289 0
25 31 199 235 295 0
25 31 199 289 295 0
25 31 229 235 289 0
25 31 229 235 295 0
25 31 229 289 295 0
25 31 235 289 295 0
25 193 199 229 235 0
25 193 199 229 289 0
25 193 199 229 295 0
25 193 199 235 289 0
25 193 199 235 295 0
25 193 199 289 295 0
25 193 229 235 289 0
25 193 229 235 295 0
25 193 229 289 295 0
25 193 235 289 295 0
25 199 229 235 289 0
25 199 229 235 295 0
25 199 229 289 295 0
25 199 235 289 295 0
25 229 235 289 295 0
31 193 199 229 235 0
31 193 199 229 289 0
31 193 199 229 295 0
31 193 199 235 289 0
31 193 199 235 295 0
31 193 199 289 295 0
31 193 229 235 289 0
31 193 229 235 295 0
31 193 229 289 295 0
31 193 235 289 295 0
31 199 229 235 289 0
31 199 229 235 295 0
31 199 229 289 295 0
31 199 235 289 295 0
31 229 235 289 295 0
193 199 229 235 289 0
193 199 229 235 295 0
193 199 229 289 295 0
193 199 235 289 295 0
193 229 235 289 295 0
199 229 235 289 295 0
-27 -33 -195 -201 -231 0
-27 -33 -195 -201 -237 0
-27 -33 -195 -201 -291 0
-27 -33 -195 -201 -297 0
-27 -33 -195 -231 -237 0
-27 -33 -195 -231 -291 0
-27 -33 -195 -231 -297 0
-27 -33 -195 -237 -291 0
-27 -33 -195 -237 -297 0
-27 -33 -195 -291 -297 0
-27 -33 -201 -231 -237 0
-27 -33 -201 -231 -291 0
-27 -33 -201 -231 -297 0
-27 -33 -201 -237 -291 0
-27 -33 -201 -237 -297 0
-27 -33 -201 -291 -297 0
-27 -33 -231 -237 -291 0
-27 -33 -231 -237 -297 0
-27 -33 -231 -291 -297 0
-27 -33 -237 -291 -297 0
-27 -195 -201 -231 -237 0
-27 -195 -201 -231 -291 0
-27 -195 -201 -231 -297 0
-27 -195 -201 -237 -291 0
-27 -195 -201 -237 -297 0
-27 -195 -201 -291 -297 0
-27 -195 -231 -237 -291 0
-27 -195 -231 -237 -297 0
-27 -195 -231 -291 -297 0
-27 -195 -237 -291 -297 0
-27 -201 -231 -237 -291 0
-27 -201 -231 -237 -297 0
-27 -201 -231 -291 -297 0
-27 -201 -237 -291 -297 0
-27 -231 -237 -291 -297 0
-33 -195 -201 -231 -237 0
-33 -195 -201 -231 -291 0
-33 -195 -201 -231 -297 0
-33 -195 -201 -237 -291 0
-33 -195 -201 -237 -297 0
-33 -195 -201 -291 -297 0
-33 -195 -231 -237 -291 0
-33 -195 -231 -237 -297 0
-33 -195 -231 -291 -297 0
-33 -195 -237 -291 -297 0
-33 -201 -231 -237 -291 0
-33 -201 -231 -237 -297 0
-33 -201 -231 -291 -297 0
-33 -201 -237 -291 -297 0
-33 -231 -237 -291 -297 0
-195 -201 -231 -237 -291 0
-195 -201 -231 -237 -297 0
-195 -201 -231 -291 -297 0
-195 -201 -237 -291 -297 0
-195 -231 -237 -291 -297 0
-201 -231 -237 -291 -297 0
27 33 195 201 231 0
27 33 195 201 237 0
27 33 195 201 291 0
27 33 195 201 297 0
27 33 195 231 237 0
27 33 195 231 291 0
27 33 195 231 297 0
27 33 195 237 291 0
27 33 195 237 297 0
27 33 195 291 297 0
27 33 201 231 237 0
27 33 201 231 291 0
27 33 201 231 297 0
27 33 201 237 291 0
27 33 201 237 297 0
27 33 201 291 297 0
27 33 231 237 291 0
27 33 231 237 297 0
27 33 231 291 297 0
27 33 237 291 297 0
27 195 201 231 237 0
27 195 201 231 291 0
27 195 201 231 297 0
27 195 201 237 291 0
27 195 201 237 297 0
27 195 201 291 297 0
27 195 231 237 291 0
27 195 231 237 297 0
27 195 231 291 297 0
27 195 237 291 297 0
27 201 231 237 291 0
27 201 231 237 297 0
27 201 231 291 297 0
27 201 237 291 297 0
27 231 237 291 297 0
33 195 201 231 237 0
33 195 201 231 291 0
33 195 201 231 297 0
33 195 201 237 291 0
33 195 201 237 297 0
33 195 201 291 297 0
33 195 231 237 291 0
33 195 231 237 297 0
33 195 231 291 297 0
33 195 237 291 297 0
33 201 231 237 291 0
33 201 231 237 297 0
33 201 231 291 297 0
33 201 237 291 297 0
33 231 237 291 297 0
195 201 231 237 291 0
195 201 231 237 297 0
195 201 231 291 297 0
195 201 237 291 297 0
195 231 237 291 297 0
201 231 237 291 297 0
-422 -437 -842 0
-422 -437 -857 0
-422 -437 -932 0
-422 -437 -947 0
-422 -437 -1082 0
-422 -437 -1097 0
-422 -842 -857 0
-422 -842 -932 0
-422 -842 -947 0
-422 -842 -1082 0
-422 -842 -1097 0
-422 -857 -932 0
-422 -857 -947 0
-422 -857 -1082 0
-422 -857 -1097 0
-422 -932 -947 0
-422 -932 -1082 0
-422 -932 -1097 0
-422 -947 -1082 0
-422 -947 -1097 0
-422 -1082 -1097 0
-437 -842 -857 0
-437 -842 -932 0
-437 -842 -947 0
-437 -842 -1082 0
-437 -842 -1097 0
-437 -857 -932 0
-437 -857 -947 0
-437 -857 -1082 0
-437 -857 -1097 0
-437 -932 -947 0
-437 -932 -1082 0
-437 -932 -1097 0
-437 -947 -1082 0
-437 -947 -1097 0
-437 -1082 -1097 0
-842 -857 -932 0
-842 -857 -947 0
-842 -857 -1082 0
-842 -857 -1097 0
-842 -932 -947 0
-842 -932 -1082 0
-842 -932 -1097 0
-842 -947 -1082 0
-842 -947 -1097 0
-842 -1082 -1097 0
-857 -932 -947 0
-857 -932 -1082 0
-857 -932 -1097 0
-857 -947 -1082 0
-857 -947 -1097 0
-857 -1082 -1097 0
-932 -947 -1082 0
-932 -947 -1097 0
-932 -1082 -1097 0
-947 -1082 -1097 0
422 437 842 857 932 947 1082 0
422 437 842 857 932 947 1097 0
422 437 842 857 932 1082 1097 0
422 437 842 857 947 1082 1097 0
422 437 842 932 947 1082 1097 0
422 437 857 932 947 1082 1097 0
422 842 857 932 947 1082 1097 0
437 842 857 932 947 1082 1097 0
-61 -67 -145 -151 -241 0
-61 -67 -145 -151 -247 0
-61 -67 -145 -151 -325 0
-61 -67 -145 -151 -331 0
-61 -67 -145 -241 -247 0
-61 -67 -145 -241 -325 0
-61 -67 -145 -241 -331 0
-61 -67 -145 -247 -325 0
-61 -67 -145 -247 -331 0
-61 -67 -145 -325 -331 0
-61 -67 -151 -241 -247 0
-61 -67 -151 -241 -325 0
-61 -67 -151 -241 -331 0
-61 -67 -151 -247 -325 0
-61 -67 -151 -247 -331 0
-61 -67 -151 -325 -331 0
-61 -67 -241 -247 -325 0
-61 -67 -241 -247 -331 0
-61 -67 -241 -325 -331 0
-61 -67 -247 -325 -331 0
-61 -145 -151 -241 -247 0
-61 -145 -151 -241 -325 0
-61 -145 -151 -241 -331 0
-61 -145 -151 -247 -325 0
-61 -145 -151 -247 -331 0
-61 -145 -151 -325 -331 0
-61 -145 -241 -247 -325 0
-61 -145 -241 -247 -331 0
-61 -145 -241 -325 -331 0
-61 -145 -247 -325 -331 0
-61 -151 -241 -247 -325 0
-61 -151 -241 -247 -331 0
-61 -151 -241 -325 -331 0
-61 -151 -247 -325 -331 0
-61 -241 -247 -325 -331 0
-67 -145 -151 -241 -247 0
-67 -145 -151 -241 -325 0
-67 -145 -151 -241 -331 0
-67 -145 -151 -247 -325 0
-67 -145 -151 -247 -331 0
-67 -145 -151 -325 -331 0
-67 -145 -241 -247 -325 0
-67 -145 -241 -247 -331 0
-67 -145 -241 -325 -331 0
-67 -145 -247 -325 -331 0
-67 -151 -241 -247 -325 0
-67 -151 -241 -247 -331 0
-67 -151 -241 -325 -331 0
-67 -151 -247 -325 -331 0
-67 -241 -247 -325 -331 0
-145 -151 -241 -247 -325 0
-145 -151 -241 -247 -331 0
-145 -151 -241 -325 -331 0
-145 -151 -247 -325 -331 0
-145 -241 -247 -325 -331 0
-151 -241 -247 -325 -331 0
61 67 145 151 241 0
61 67 145 151 247 0
61 67 145 151 325 0
61 67 145 151 331 0
61 67 145 241 247 0
61 67 145 241 325 0
61 67 145 241 331 0
61 67 145 247 325 0
61 67 145 247 331 0
61 67 145 325 331 0
61 67 151 241 247 0
61 67 151 241 325 0
61 67 151 241 331 0
61 67 151 247 325 0
61 67 151 247 331 0
61 67 151 325 331 0
61 67 241 247 325 0
61 67 241 247 331 0
61 67 241 325 331 0
61 67 247 325 331 0
61 145 151 241 247 0
61 145 151 241 325 0
61 145 151 241 331 0
61 145 151 247 325 0
61 145 151 247 331 0
61 145 151 325 331 0
61 145 241 247 325 0
61 145 241 247 331 0
61 145 241 325 331 0
61 145 247 325 331 0
61 151 241 247 325 0
61 151 241 247 331 0
61 151 241 325 331 0
61 151 247 325 331 0
61 241 247 325 331 0
67 145 151 241 247 0
67 145 151 241 325 0
67 145 151 241 331 0
67 145 151 247 325 0
67 145 151 247 331 0
67 145 151 325 331 0
67 145 241 247 325 0
67 145 241 247 331 0
67 145 241 325 331 0
67 145 247 325 331 0
67 151 241 247 325 0
67 151 241 247 331 0
67 151 241 325 331 0
67 151 247 325 331 0
67 241 247 325 331 0
145 151 241 247 325 0
145 151 241 247 331 0
145 151 241 325 331 0
145 151 247 325 331 0
145 241 247 325 331 0
151 241 247 325 331 0
-63 -69 -147 -153 -243 0
-63 -69 -147 -153 -249 0
-63 -69 -147 -153 -327 0
-63 -69 -147 -153 -333 0
-63 -69 -147 -243 -249 0
-63 -69 -147 -243 -327 0
-63 -69 -147 -243 -333 0
-63 -69 -147 -249 -327 0
-63 -69 -147 -249 -333 0
-63 -69 -147 -327 -333 0
-63 -69 -153 -243 -249 0
-63 -69 -153 -243 -327 0
-63 -69 -153 -243 -333 0
-63 -69 -153 -249 -327 0
-63 -69 -153 -249 -333 0
-63 -69 -153 -327 -333 0
-63 -69 -243 -249 -327 0
-63 -69 -243 -249 -333 0
-63 -69 -243 -327 -333 0
-63 -69 -249 -327 -333 0
-63 -147 -153 -243 -249 0
-63 -147 -153 -243 -327 0
-63 -147 -153 -243 -333 0
-63 -147 -153 -249 -327 0
-63 -147 -153 -249 -333 0
-63 -147 -153 -327 -333 0
-63 -147 -243 -249 -327 0
-63 -147 -243 -249 -333 0
-63 -147 -243 -327 -333 0
-63 -147 -249 -327 -333 0
-63 -153 -243 -249 -327 0
-63 -153 -243 -249 -333 0
-63 -153 -243 -327 -333 0
-63 -153 -249 -327 -333 0
-63 -243 -249 -327 -333 0
-69 -147 -153 -243 -249 0
-69 -147 -153 -243 -327 0
-69 -147 -153 -243 -333 0
-69 -147 -153 -249 -327 0
-69 -147 -153 -249 -333 0
-69 -147 -153 -327 -333 0
-69 -147 -243 -249 -327 0
-69 -147 -243 -249 -333 0
-69 -147 -243 -327 -333 0
-69 -147 -249 -327 -333 0
-69 -153 -243 -249 -327 0
-69 -153 -243 -249 -333 0
-69 -153 -243 -327 -333 0
-69 -153 -249 -327 -333 0
-69 -243 -249 -327 -333 0
-147 -153 -243 -249 -327 0
-147 -153 -243 -249 -333 0
-147 -153 -243 -327 -333 0
-147 -153 -249 -327 -333 0
-147 -243 -249 -327 -333 0
-153 -243 -249 -327 -333 0
63 69 147 153 243 0
63 69 147 153 249 0
63 69 147 153 327 0
63 69 147 153 333 0
63 69 147 243 249 0
63 69 147 243 327 0
63 69 147 243 333 0
63 69 147 249 327 0
63 69 147 249 333 0
63 69 147 327 333 0
63 69 153 243 249 0
63 69 153 243 327 0
63 69 153 243 333 0
63 69 153 249 327 0
63 69 153 249 333 0
63 69 153 327 333 0
63 69 243 249 327 0
63 69 243 249 333 0
63 69 243 327 333 0
63 69 249 327 333 0
63 147 153 243 249 0
63 147 153 243 327 0
63 147 153 243 333 0
63 147 153 249 327 0
63 147 153 249 333 0
63 147 153 327 333 0
63 147 243 249 327 0
63 147 243 249 333 0
63 147 243 327 333 0
63 147 249 327 333 0
63 153 243 249 327 0
63 153 243 249 333 0
63 153 243 327 333 0
63 153 249 327 333 0
63 243 249 327 333 0
69 147 153 243 249 0
69 147 153 243 327 0
69 147 153 243 333 0
69 147 153 249 327 0
69 147 153 249 333 0
69 147 153 327 333 0
69 147 243 249 327 0
69 147 243 249 333 0
69 147 243 327 333 0
69 147 249 327 333 0
69 153 243 249 327 0
69 153 243 249 333 0
69 153 243 327 333 0
69 153 249 327 333 0
69 243 249 327 333 0
147 153 243 249 327 0
147 153 243 249 333 0
147 153 243 327 333 0
147 153 249 327 333 0
147 243 249 327 333 0
153 243 249 327 333 0
-512 -527 -722 0
-512 -527 -737 0
-512 -527 -962 0
-512 -527 -977 0
-512 -527 -1172 0
-512 -527 -1187 0
-512 -722 -737 0
-512 -722 -962 0
-512 -722 -977 0
-512 -722 -1172 0
-512 -722 -1187 0
-512 -737 -962 0
-512 -737 -977 0
-512 -737 -1172 0
-512 -737 -1187 0
-512 -962 -977 0
-512 -962 -1172 0
-512 -962 -1187 0
-512 -977 -1172 0
-512 -977 -1187 0
-512 -1172 -1187 0
-527 -722 -737 0
-527 -722 -962 0
-527 -722 -977 0
-527 -722 -1172 0
-527 -722 -1187 0
-527 -737 -962 0
-527 -737 -977 0
-527 -737 -1172 0
-527 -737 -1187 0
-527 -962 -977 0
-527 -962 -1172 0
-527 -962 -1187 0
-527 -977 -1172 0
-527 -977 -1187 0
-527 -1172 -1187 0
-722 -737 -962 0
-722 -737 -977 0
-722 -737 -1172 0
-722 -737 -1187 0
-722 -962 -977 0
-722 -962 -1172 0
-722 -962 -1187 0
-722 -977 -1172 0
-722 -977 -1187 0
-722 -1172 -1187 0
-737 -962 -977 0
-737 -962 -1172 0
-737 -962 -1187 0
-737 -977 -1172 0
-737 -977 -1187 0
-737 -1172 -1187 0
-962 -977 -1172 0
-962 -977 -1187 0
-962 -1172 -1187 0
-977 -1172 -1187 0
512 527 722 737 962 977 1172 0
512 527 722 737 962 977 1187 0
512 527 722 737 962 1172 1187 0
512 527 722 737 977 1172 1187 0
512 527 722 962 977 1172 1187 0
512 527 737 962 977 1172 1187 0
512 722 737 962 977 1172 1187 0
527 722 737 962 977 1172 1187 0
-49 -55 -169 -175 -217 0
-49 -55 -169 -175 -223 0
-49 -55 -169 -175 -301 0
-49 -55 -169 -175 -307 0
-49 -55 -169 -217 -223 0
-49 -55 -169 -217 -301 0
-49 -55 -169 -217 -307 0
-49 -55 -169 -223 -301 0
-49 -55 -169 -223 -307 0
-49 -55 -169 -301 -307 0
-49 -55 -175 -217 -223 0
-49 -55 -175 -217 -301 0
-49 -55 -175 -217 -307 0
-49 -55 -175 -223 -301 0
-49 -55 -175 -223 -307 0
-49 -55 -175 -301 -307 0
-49 -55 -217 -223 -301 0
-49 -55 -217 -223 -307 0
-49 -55 -217 -301 -307 0
-49 -55 -223 -301 -307 0
-49 -169 -175 -217 -223 0
-49 -169 -175 -217 -301 0
-49 -169 -175 -217 -307 0
-49 -169 -175 -223 -301 0
-49 -169 -175 -223 -307 0
-49 -169 -175 -301 -307 0
-49 -169 -217 -223 -301 0
-49 -169 -217 -223 -307 0
-49 -169 -217 -301 -307 0
-49 -169 -223 -301 -307 0
-49 -175 -217 -223 -301 0
-49 -175 -217 -223 -307 0
-49 -175 -217 -301 -307 0
-49 -175 -223 -301 -307 0
-49 -217 -223 -301 -307 0
-55 -169 -175 -217 -223 0
-55 -169 -175 -217 -301 0
-55 -169 -175 -217 -307 0
-55 -169 -175 -223 -301 0
-55 -169 -175 -223 -307 0
-55 -169 -175 -301 -307 0
-55 -169 -217 -223 -301 0
-55 -169 -217 -223 -307 0
-55 -169 -217 -301 -307 0
-55 -169 -223 -301 -307 0
-55 -175 -217 -223 -301 0
-55 -175 -217 -223 -307 0
-55 -175 -217 -301 -307 0
-55 -175 -223 -301 -307 0
-55 -217 -223 -301 -307 0
-169 -175 -217 -223 -301 0
-169 -175 -217 -223 -307 0
-169 -175 -217 -301 -307 0
-169 -175 -223 -301 -307 0
-169 -217 -223 -301 -307 0
-175 -217 -223 -301 -307 0
49 55 169 175 217 0
49 55 169 175 223 0
49 55 169 175 301 0
49 55 169 175 307 0
49 55 169 217 223 0
49 55 169 217 301 0
49 55 169 217 307 0
49 55 169 223 301 0
49 55 169 223 307 0
49 55 169 301 307 0
49 55 175 217 223 0
49 55 175 217 301 0
49 55 175 217 307 0
49 55 175 223 301 0
49 55 175 223 307 0
49 55 175 301 307 0
49 55 217 223 301 0
49 55 217 223 307 0
49 55 217 301 307 0
49 55 223 301 307 0
49 169 175 217 223 0
49 169 175 217 301 0
49 169 175 217 307 0
49 169 175 223 301 0
49 169 175 223 307 0
49 169 175 301 307 0
49 169 217 223 301 0
49 169 217 223 307 0
49 169 217 301 307 0
49 169 223 301 307 0
49 175 217 223 301 0
49 175 217 223 307 0
49 175 217 301 307 0
49 175 223 301 307 0
49 217 223 301 307 0
55 169 175 217 223 0
55 169 175 217 301 0
55 169 175 217 307 0
55 169 175 223 301 0
55 169 175 223 307 0
55 169 175 301 307 0
55 169 217 223 301 0
55 169 217 223 307 0
55 169 217 301 307 0
55 169 223 301 307 0
55 175 217 223 301 0
55 175 217 223 307 0
55 175 217 301 307 0
55 175 223 301 307 0
55 217 223 301 307 0
169 175 217 223 301 0
169 175 217 223 307 0
169 175 217 301 307 0
169 175 223 301 307 0
169 217 223 301 307 0
175 217 223 301 307 0
-51 -57 -171 -177 -219 0
-51 -57 -171 -177 -225 0
-51 -57 -171 -177 -303 0
-51 -57 -171 -177 -309 0
-51 -57 -171 -219 -225 0
-51 -57 -171 -219 -303 0
-51 -57 -171 -219 -309 0
-51 -57 -171 -225 -303 0
-51 -57 -171 -225 -309 0
-51 -57 -171 -303 -309 0
-51 -57 -177 -219 -225 0
-51 -57 -177 -219 -303 0
-51 -57 -177 -219 -309 0
-51 -57 -177 -225 -303 0
-51 -57 -177 -225 -309 0
-51 -57 -177 -303 -309 0
-51 -57 -219 -225 -303 0
-51 -57 -219 -225 -309 0
-51 -57 -219 -303 -309 0
-51 -57 -225 -303 -309 0
-51 -171 -177 -219 -225 0
-51 -171 -177 -219 -303 0
-51 -171 -177 -219 -309 0
-51 -171 -177 -225 -303 0
-51 -171 -177 -225 -309 0
-51 -171 -177 -303 -309 0
-51 -171 -219 -225 -303 0
-51 -171 -219 -225 -309 0
-51 -171 -219 -303 -309 0
-51 -171 -225 -303 -309 0
-51 -177 -219 -225 -303 0
-51 -177 -219 -225 -309 0
-51 -177 -219 -303 -309 0
-51 -177 -225 -303 -309 0
-51 -219 -225 -303 -309 0
-57 -171 -177 -219 -225 0
-57 -171 -177 -219 -303 0
-57 -171 -177 -219 -309 0
-57 -171 -177 -225 -303 0
-57 -171 -177 -225 -309 0
-57 -171 -177 -303 -309 0
-57 -171 -219 -225 -303 0
-57 -171 -219 -225 -309 0
-57 -171 -219 -303 -309 0
-57 -171 -225 -303 -309 0
-57 -177 -219 -225 -303 0
-57 -177 -219 -225 -309 0
-57 -177 -219 -303 -309 0
-57 -177 -225 -303 -309 0
-57 -219 -225 -303 -309 0
-171 -177 -219 -225 -303 0
-171 -177 -219 -225 -309 0
-171 -177 -219 -303 -309 0
-171 -177 -225 -303 -309 0
-171 -219 -225 -303 -309 0
-177 -219 -225 -303 -309 0
51 57 171 177 219 0
51 57 171 177 225 0
51 57 171 177 303 0
51 57 171 177 309 0
51 57 171 219 225 0
51 57 171 219 303 0
51 57 171 219 309 0
51 57 171 225 303 0
51 57 171 225 309 0
51 57 171 303 309 0
51 57 177 219 225 0
51 57 177 219 303 0
51 57 177 219 309 0
51 57 177 225 303 0
51 57 177 225 309 0
51 57 177 303 309 0
51 57 219 225 303 0
51 57 219 225 309 0
51 57 219 303 309 0
51 57 225 303 309 0
51 171 177 219 225 0
51 171 177 219 303 0
51 171 177 219 309 0
51 171 177 225 303 0
51 171 177 225 309 0
51 171 177 303 309 0
51 171 219 225 303 0
51 171 219 225 309 0
51 171 219 303 309 0
51 171 225 303 309 0
51 177 219 225 303 0
51 177 219 225 309 0
51 177 219 303 309 0
51 177 225 303 309 0
51 219 225 303 309 0
57 171 177 219 225 0
57 171 177 219 303 0
57 171 177 219 309 0
57 171 177 225 303 0
57 171 177 225 309 0
57 171 177 303 309 0
57 171 219 225 303 0
57 171 219 225 309 0
57 171 219 303 309 0
57 171 225 303 309 0
57 177 219 225 303 0
57 177 219 225 309 0
57 177 219 303 309 0
57 177 225 303 309 0
57 219 225 303 309 0
171 177 219 225 303 0
171 177 219 225 309 0
171 177 219 303 309 0
171 177 225 303 309 0
171 219 225 303 309 0
177 219 225 303 309 0
-482 -497 -782 0
-482 -497 -797 0
-482 -497 -902 0
-482 -497 -917 0
-482 -497 -1112 0
-482 -497 -1127 0
-482 -782 -797 0
-482 -782 -902 0
-482 -782 -917 0
-482 -782 -1112 0
-482 -782 -1127 0
-482 -797 -902 0
-482 -797 -917 0
-482 -797 -1112 0
-482 -797 -1127 0
-482 -902 -917 0
-482 -902 -1112 0
-482 -902 -1127 0
-482 -917 -1112 0
-482 -917 -1127 0
-482 -1112 -1127 0
-497 -782 -797 0
-497 -782 -902 0
-497 -782 -917 0
-497 -782 -1112 0
-497 -782 -1127 0
-497 -797 -902 0
-497 -797 -917 0
-497 -797 -1112 0
-497 -797 -1127 0
-497 -902 -917 0
-497 -902 -1112 0
-497 -902 -1127 0
-497 -917 -1112 0
-497 -917 -1127 0
-497 -1112 -1127 0
-782 -797 -902 0
-782 -797 -917 0
-782 -797 -1112 0
-782 -797 -1127 0
-782 -902 -917 0
-782 -902 -1112 0
-782 -902 -1127 0
-782 -917 -1112 0
-782 -917 -1127 0
-782 -1112 -1127 0
-797 -902 -917 0
-797 -902 -1112 0
-797 -902 -1127 0
-797 -917 -1112 0
-797 -917 -1127 0
-797 -1112 -1127 0
-902 -917 -1112 0
-902 -917 -1127 0
-902 -1112 -1127 0
-917 -1112 -1127 0
482 497 782 797 902 917 1112 0
482 497 782 797 902 917 1127 0
482 497 782 797 902 1112 1127 0
482 497 782 797 917 1112 1127 0
482 497 782 902 917 1112 1127 0
482 497 797 902 917 1112 1127 0
482 782 797 902 917 1112 1127 0
497 782 797 902 917 1112 1127 0
-85 -91 -109 0
-85 -91 -115 0
-85 -109 -115 0
-91 -109 -115 0
85 91 109 0
85 91 115 0
85 109 115 0
91 109 115 0
-87 -93 -111 0
-87 -93 -117 0
-87 -111 -117 0
-93 -111 -117 0
87 93 111 0
87 93 117 0
87 111 117 0
93 111 117 0
-572 -587 0
-572 -632 0
-572 -647 0
-587 -632 0
-587 -647 0
-632 -647 0
572 587 632 647 0
-313 -319 -337 0
-313 -319 -343 0
-313 -337 -343 0
-319 -337 -343 0
313 319 337 0
313 319 343 0
313 337 343 0
319 337 343 0
-316 -322 -340 0
-316 -322 -346 0
-316 -340 -346 0
-322 -340 -346 0
316 322 340 0
316 322 346 0
316 340 346 0
322 340 346 0
-1143 -1158 0
-1143 -1203 0
-1143 -1218 0
-1158 -1203 0
-1158 -1218 0
-1203 -1218 0
1143 1158 1203 1218 0
-13 -19 -121 -127 -205 0
-13 -19 -121 -127 -211 0
-13 -19 -121 -127 -253 0
-13 -19 -121 -127 -259 0
-13 -19 -121 -205 -211 0
-13 -19 -121 -205 -253 0
-13 -19 -121 -205 -259 0
-13 -19 -121 -211 -253 0
-13 -19 -121 -211 -259 0
-13 -19 -121 -253 -259 0
-13 -19 -127 -205 -211 0
-13 -19 -127 -205 -253 0
-13 -19 -127 -205 -259 0
-13 -19 -127 -211 -253 0
-13 -19 -127 -211 -259 0
-13 -19 -127 -253 -259 0
-13 -19 -205 -211 -253 0
-13 -19 -205 -211 -259 0
-13 -19 -205 -253 -259 0
-13 -19 -211 -253 -259 0
-13 -121 -127 -205 -211 0
-13 -121 -127 -205 -253 0
-13 -121 -127 -205 -259 0
-13 -121 -127 -211 -253 0
-13 -121 -127 -211 -259 0
-13 -121 -127 -253 -259 0
-13 -121 -205 -211 -253 0
-13 -121 -205 -211 -259 0
-13 -121 -205 -253 -259 0
-13 -121 -211 -253 -259 0
-13 -127 -205 -211 -253 0
-13 -127 -205 -211 -259 0
-13 -127 -205 -253 -259 0
-13 -127 -211 -253 -259 0
-13 -205 -211 -253 -259 0
-19 -121 -127 -205 -211 0
-19 -121 -127 -205 -253 0
-19 -121 -127 -205 -259 0
-19 -121 -127 -211 -253 0
-19 -121 -127 -211 -259 0
-19 -121 -127 -253 -259 0
-19 -121 -205 -211 -253 0
-19 -121 -205 -211 -259 0
-19 -121 -205 -253 -259 0
-19 -121 -211 -253 -259 0
-19 -127 -205 -211 -253 0
-19 -127 -205 -211 -259 0
-19 -127 -205 -253 -259 0
-19 -127 -211 -253 -259 0
-19 -205 -211 -253 -259 0
-121 -127 -205 -211 -253 0
-121 -127 -205 -211 -259 0
-121 -127 -205 -253 -259 0
-121 -127 -211 -253 -259 0
-121 -205 -211 -253 -259 0
-127 -205 -211 -253 -259 0
13 19 121 127 205 0
13 19 121 127 211 0
13 19 121 127 253 0
13 19 121 127 259 0
13 19 121 205 211 0
13 19 121 205 253 0
13 19 121 205 259 0
13 19 121 211 253 0
13 19 121 211 259 0
13 19 121 253 259 0
13 19 127 205 211 0
13 19 127 205 253 0
13 19 127 205 259 0
13 19 127 211 253 0
13 19 127 211 259 0
13 19 127 253 259 0
13 19 205 211 253 0
13 19 205 211 259 0
13 19 205 253 259 0
13 19 211 253 259 0
13 121 127 205 211 0
13 121 127 205 253 0
13 121 127 205 259 0
13 121 127 211 253 0
13 121 127 211 259 0
13 121 127 253 259 0
13 121 205 211 253 0
13 121 205 211 259 0
13 121 205 253 259 0
13 121 211 253 259 0
13 127 205 211 253 0
13 127 205 211 259 0
13 127 205 253 259 0
13 127 211 253 259 0
13 205 211 253 259 0
19 121 127 205 211 0
19 121 127 205 253 0
19 121 127 205 259 0
19 121 127 211 253 0
19 121 127 211 259 0
19 121 127 253 259 0
19 121 205 211 253 0
19 121 205 211 259 0
19 121 205 253 259 0
19 121 211 253 259 0
19 127 205 211 253 0
19 127 205 211 259 0
19 127 205 253 259 0
19 127 211 253 259 0
19 205 211 253 259 0
121 127 205 211 253 0
121 127 205 211 259 0
121 127 205 253 259 0
121 127 211 253 259 0
121 205 211 253 259 0
127 205 211 253 259 0
-16 -22 -124 -130 -208 0
-16 -22 -124 -130 -214 0
-16 -22 -124 -130 -256 0
-16 -22 -124 -130 -262 0
-16 -22 -124 -208 -214 0
-16 -22 -124 -208 -256 0
-16 -22 -124 -208 -262 0
-16 -22 -124 -214 -256 0
-16 -22 -124 -214 -262 0
-16 -22 -124 -256 -262 0
-16 -22 -130 -208 -214 0
-16 -22 -130 -208 -256 0
-16 -22 -130 -208 -262 0
-16 -22 -130 -214 -256 0
-16 -22 -130 -214 -262 0
-16 -22 -130 -256 -262 0
-16 -22 -208 -214 -256 0
-16 -22 -208 -214 -262 0
-16 -22 -208 -256 -262 0
-16 -22 -214 -256 -262 0
-16 -124 -130 -208 -214 0
-16 -124 -130 -208 -256 0
-16 -124 -130 -208 -262 0
-16 -124 -130 -214 -256 0
-16 -124 -130 -214 -262 0
-16 -124 -130 -256 -262 0
-16 -124 -208 -214 -256 0
-16 -124 -208 -214 -262 0
-16 -124 -208 -256 -262 0
-16 -124 -214 -256 -262 0
-16 -130 -208 -214 -256 0
-16 -130 -208 -214 -262 0
-16 -130 -208 -256 -262 0
-16 -130 -214 -256 -262 0
-16 -208 -214 -256 -262 0
-22 -124 -130 -208 -214 0
-22 -124 -130 -208 -256 0
-22 -124 -130 -208 -262 0
-22 -124 -130 -214 -256 0
-22 -124 -130 -214 -262 0
-22 -124 -130 -256 -262 0
-22 -124 -208 -214 -256 0
-22 -124 -208 -214 -262 0
-22 -124 -208 -256 -262 0
-22 -124 -214 -256 -262 0
-22 -130 -208 -214 -256 0
-22 -130 -208 -214 -262 0
-22 -130 -208 -256 -262 0
-22 -130 -214 -256 -262 0
-22 -208 -214 -256 -262 0
-124 -130 -208 -214 -256 0
-124 -130 -208 -214 -262 0
-124 -130 -208 -256 -262 0
-124 -130 -214 -256 -262 0
-124 -208 -214 -256 -262 0
-130 -208 -214 -256 -262 0
16 22 124 130 208 0
16 22 124 130 214 0
16 22 124 130 256 0
16 22 124 130 262 0
16 22 124 208 214 0
16 22 124 208 256 0
16 22 124 208 262 0
16 22 124 214 256 0
16 22 124 214 262 0
16 22 124 256 262 0
16 22 130 208 214 0
16 22 130 208 256 0
16 22 130 208 262 0
16 22 130 214 256 0
16 22 130 214 262 0
16 22 130 256 262 0
16 22 208 214 256 0
16 22 208 214 262 0
16 22 208 256 262 0
16 22 214 256 262 0
16 124 130 208 214 0
16 124 130 208 256 0
16 124 130 208 262 0
16 124 130 214 256 0
16 124 130 214 262 0
16 124 130 256 262 0
16 124 208 214 256 0
16 124 208 214 262 0
16 124 208 256 262 0
16 124 214 256 262 0
16 130 208 214 256 0
16 130 208 214 262 0
16 130 208 256 262 0
16 130 214 256 262 0
16 208 214 256 262 0
22 124 130 208 214 0
22 124 130 208 256 0
22 124 130 208 262 0
22 124 130 214 256 0
22 124 130 214 262 0
22 124 130 256 262 0
22 124 208 214 256 0
22 124 208 214 262 0
22 124 208 256 262 0
22 124 214 256 262 0
22 130 208 214 256 0
22 130 208 214 262 0
22 130 208 256 262 0
22 130 214 256 262 0
22 208 214 256 262 0
124 130 208 214 256 0
124 130 208 214 262 0
124 130 208 256 262 0
124 130 214 256 262 0
124 208 214 256 262 0
130 208 214 256 262 0
-393 -408 -663 0
-393 -408 -678 0
-393 -408 -873 0
-393 -408 -888 0
-393 -408 -993 0
-393 -408 -1008 0
-393 -663 -678 0
-393 -663 -873 0
-393 -663 -888 0
-393 -663 -993 0
-393 -663 -1008 0
-393 -678 -873 0
-393 -678 -888 0
-393 -678 -993 0
-393 -678 -1008 0
-393 -873 -888 0
-393 -873 -993 0
-393 -873 -1008 0
-393 -888 -993 0
-393 -888 -1008 0
-393 -993 -1008 0
-408 -663 -678 0
-408 -663 -873 0
-408 -663 -888 0
-408 -663 -993 0
-408 -663 -1008 0
-408 -678 -873 0
-408 -678 -888 0
-408 -678 -993 0
-408 -678 -1008 0
-408 -873 -888 0
-408 -873 -993 0
-408 -873 -1008 0
-408 -888 -993 0
-408 -888 -1008 0
-408 -993 -1008 0
-663 -678 -873 0
-663 -678 -888 0
-663 -678 -993 0
-663 -678 -1008 0
-663 -873 -888 0
-663 -873 -993 0
-663 -873 -1008 0
-663 -888 -993 0
-663 -888 -1008 0
-663 -993 -1008 0
-678 -873 -888 0
-678 -873 -993 0
-678 -873 -1008 0
-678 -888 -993 0
-678 -888 -1008 0
-678 -993 -1008 0
-873 -888 -993 0
-873 -888 -1008 0
-873 -993 -1008 0
-888 -993 -1008 0
393 408 663 678 873 888 993 0
393 408 663 678 873 888 1008 0
393 408 663 678 873 993 1008 0
393 408 663 678 888 993 1008 0
393 408 663 873 888 993 1008 0
393 408 678 873 888 993 1008 0
393 663 678 873 888 993 1008 0
408 663 678 873 888 993 1008 0
-1 -7 -97 -103 -181 0
-1 -7 -97 -103 -187 0
-1 -7 -97 -103 -277 0
-1 -7 -97 -103 -283 0
-1 -7 -97 -181 -187 0
-1 -7 -97 -181 -277 0
-1 -7 -97 -181 -283 0
-1 -7 -97 -187 -277 0
-1 -7 -97 -187 -283 0
-1 -7 -97 -277 -283 0
-1 -7 -103 -181 -187 0
-1 -7 -103 -181 -277 0
-1 -7 -103 -181 -283 0
-1 -7 -103 -187 -277 0
-1 -7 -103 -187 -283 0
-1 -7 -103 -277 -283 0
-1 -7 -181 -187 -277 0
-1 -7 -181 -187 -283 0
-1 -7 -181 -277 -283 0
-1 -7 -187 -277 -283 0
-1 -97 -103 -181 -187 0
-1 -97 -103 -181 -277 0
-1 -97 -103 -181 -283 0
-1 -97 -103 -187 -277 0
-1 -97 -103 -187 -283 0
-1 -97 -103 -277 -283 0
-1 -97 -181 -187 -277 0
-1 -97 -181 -187 -283 0
-1 -97 -181 -277 -283 0
-1 -97 -187 -277 -283 0
-1 -103 -181 -187 -277 0
-1 -103 -181 -187 -283 0
-1 -103 -181 -277 -283 0
-1 -103 -187 -277 -283 0
-1 -181 -187 -277 -283 0
-7 -97 -103 -181 -187 0
-7 -97 -103 -181 -277 0
-7 -97 -103 -181 -283 0
-7 -97 -103 -187 -277 0
-7 -97 -103 -187 -283 0
-7 -97 -103 -277 -283 0
-7 -97 -181 -187 -277 0
-7 -97 -181 -187 -283 0
-7 -97 -181 -277 -283 0
-7 -97 -187 -277 -283 0
-7 -103 -181 -187 -277 0
-7 -103 -181 -187 -283 0
-7 -103 -181 -277 -283 0
-7 -103 -187 -277 -283 0
-7 -181 -187 -277 -283 0
-97 -103 -181 -187 -277 0
-97 -103 -181 -187 -283 0
-97 -103 -181 -277 -283 0
-97 -103 -187 -277 -283 0
-97 -181 -187 -277 -283 0
-103 -181 -187 -277 -283 0
1 7 97 103 181 0
1 7 97 103 187 0
1 7 97 103 277 0
1 7 97 103 283 0
1 7 97 181 187 0
1 7 97 181 277 0
1 7 97 181 283 0
1 7 97 187 277 0
1 7 97 187 283 0
1 7 97 277 283 0
1 7 103 181 187 0
1 7 103 181 277 0
1 7 103 181 283 0
1 7 103 187 277 0
1 7 103 187 283 0
1 7 103 277 283 0
1 7 181 187 277 0
1 7 181 187 283 0
1 7 181 277 283 0
1 7 187 277 283 0
1 97 103 181 187 0
1 97 103 181 277 0
1 97 103 181 283 0
1 97 103 187 277 0
1 97 103 187 283 0
1 97 103 277 283 0
1 97 181 187 277 0
1 97 181 187 283 0
1 97 181 277 283 0
1 97 187 277 283 0
1 103 181 187 277 0
1 103 181 187 283 0
1 103 181 277 283 0
1 103 187 277 283 0
1 181 187 277 283 0
7 97 103 181 187 0
7 97 103 181 277 0
7 97 103 181 283 0
7 97 103 187 277 0
7 97 103 187 283 0
7 97 103 277 283 0
7 97 181 187 277 0
7 97 181 187 283 0
7 97 181 277 283 0
7 97 187 277 283 0
7 103 181 187 277 0
7 103 181 187 283 0
7 103 181 277 283 0
7 103 187 277 283 0
7 181 187 277 283 0
97 103 181 187 277 0
97 103 181 187 283 0
97 103 181 277 283 0
97 103 187 277 283 0
97 181 187 277 283 0
103 181 187 277 283 0
-4 -10 -100 -106 -184 0
-4 -10 -100 -106 -190 0
-4 -10 -100 -106 -280 0
-4 -10 -100 -106 -286 0
-4 -10 -100 -184 -190 0
-4 -10 -100 -184 -280 0
-4 -10 -100 -184 -286 0
-4 -10 -100 -190 -280 0
-4 -10 -100 -190 -286 0
-4 -10 -100 -280 -286 0
-4 -10 -106 -184 -190 0
-4 -10 -106 -184 -280 0
-4 -10 -106 -184 -286 0
-4 -10 -106 -190 -280 0
-4 -10 -106 -190 -286 0
-4 -10 -106 -280 -286 0
-4 -10 -184 -190 -280 0
-4 -10 -184 -190 -286 0
-4 -10 -184 -280 -286 0
-4 -10 -190 -280 -286 0
-4 -100 -106 -184 -190 0
-4 -100 -106 -184 -280 0
-4 -100 -106 -184 -286 0
-4 -100 -106 -190 -280 0
-4 -100 -106 -190 -286 0
-4 -100 -106 -280 -286 0
-4 -100 -184 -190 -280 0
-4 -100 -184 -190 -286 0
-4 -100 -184 -280 -286 0
-4 -100 -190 -280 -286 0
-4 -106 -184 -190 -280 0
-4 -106 -184 -190 -286 0
-4 -106 -184 -280 -286 0
-4 -106 -190 -280 -286 0
-4 -184 -190 -280 -286 0
-10 -100 -106 -184 -190 0
-10 -100 -106 -184 -280 0
-10 -100 -106 -184 -286 0
-10 -100 -106 -190 -280 0
-10 -100 -106 -190 -286 0
-10 -100 -106 -280 -286 0
-10 -100 -184 -190 -280 0
-10 -100 -184 -190 -286 0
-10 -100 -184 -280 -286 0
-10 -100 -190 -280 -286 0
-10 -106 -184 -190 -280 0
-10 -106 -184 -190 -286 0
-10 -106 -184 -280 -286 0
-10 -106 -190 -280 -286 0
-10 -184 -190 -280 -286 0
-100 -106 -184 -190 -280 0
-100 -106 -184 -190 -286 0
-100 -106 -184 -280 -286 0
-100 -106 -190 -280 -286 0
-100 -184 -190 -280 -286 0
-106 -184 -190 -280 -286 0
4 10 100 106 184 0
4 10 100 106 190 0
4 10 100 106 280 0
4 10 100 106 286 0
4 10 100 184 190 0
4 10 100 184 280 0
4 10 100 184 286 0
4 10 100 190 280 0
4 10 100 190 286 0
4 10 100 280 286 0
4 10 106 184 190 0
4 10 106 184 280 0
4 10 106 184 286 0
4 10 106 190 280 0
4 10 106 190 286 0
4 10 106 280 286 0
4 10 184 190 280 0
4 10 184 190 286 0
4 10 184 280 286 0
4 10 190 280 286 0
4 100 106 184 190 0
4 100 106 184 280 0
4 100 106 184 286 0
4 100 106 190 280 0
4 100 106 190 286 0
4 100 106 280 286 0
4 100 184 190 280 0
4 100 184 190 286 0
4 100 184 280 286 0
4 100 190 280 286 0
4 106 184 190 280 0
4 106 184 190 286 0
4 106 184 280 286 0
4 106 190 280 286 0
4 184 190 280 286 0
10 100 106 184 190 0
10 100 106 184 280 0
10 100 106 184 286 0
10 100 106 190 280 0
10 100 106 190 286 0
10 100 106 280 286 0
10 100 184 190 280 0
10 100 184 190 286 0
10 100 184 280 286 0
10 100 190 280 286 0
10 106 184 190 280 0
10 106 184 190 286 0
10 106 184 280 286 0
10 106 190 280 286 0
10 184 190 280 286 0
100 106 184 190 280 0
100 106 184 190 286 0
100 106 184 280 286 0
100 106 190 280 286 0
100 184 190 280 286 0
106 184 190 280 286 0
-363 -378 -603 0
-363 -378 -618 0
-363 -378 -813 0
-363 -378 -828 0
-363 -378 -1053 0
-363 -378 -1068 0
-363 -603 -618 0
-363 -603 -813 0
-363 -603 -828 0
-363 -603 -1053 0
-363 -603 -1068 0
-363 -618 -813 0
-363 -618 -828 0
-363 -618 -1053 0
-363 -618 -1068 0
-363 -813 -828 0
-363 -813 -1053 0
-363 -813 -1068 0
-363 -828 -1053 0
-363 -828 -1068 0
-363 -1053 -1068 0
-378 -603 -618 0
-378 -603 -813 0
-378 -603 -828 0
-378 -603 -1053 0
-378 -603 -1068 0
-378 -618 -813 0
-378 -618 -828 0
-378 -618 -1053 0
-378 -618 -1068 0
-378 -813 -828 0
-378 -813 -1053 0
-378 -813 -1068 0
-378 -828 -1053 0
-378 -828 -1068 0
-378 -1053 -1068 0
-603 -618 -813 0
-603 -618 -828 0
-603 -618 -1053 0
-603 -618 -1068 0
-603 -813 -828 0
-603 -813 -1053 0
-603 -813 -1068 0
-603 -828 -1053 0
-603 -828 -1068 0
-603 -1053 -1068 0
-618 -813 -828 0
-618 -813 -1053 0
-618 -813 -1068 0
-618 -828 -1053 0
-618 -828 -1068 0
-618 -1053 -1068 0
-813 -828 -1053 0
-813 -828 -1068 0
-813 -1053 -1068 0
-828 -1053 -1068 0
363 378 603 618 813 828 1053 0
363 378 603 618 813 828 1068 0
363 378 603 618 813 1053 1068 0
363 378 603 618 828 1053 1068 0
363 378 603 813 828 1053 1068 0
363 378 618 813 828 1053 1068 0
363 603 618 813 828 1053 1068 0
378 603 618 813 828 1053 1068 0
-37 -43 -133 -139 -193 0
-37 -43 -133 -139 -199 0
-37 -43 -133 -139 -229 0
-37 -43 -133 -139 -235 0
-37 -43 -133 -193 -199 0
-37 -43 -133 -193 -229 0
-37 -43 -133 -193 -235 0
-37 -43 -133 -199 -229 0
-37 -43 -133 -199 -235 0
-37 -43 -133 -229 -235 0
-37 -43 -139 -193 -199 0
-37 -43 -139 -193 -229 0
-37 -43 -139 -193 -235 0
-37 -43 -139 -199 -229 0
-37 -43 -139 -199 -235 0
-37 -43 -139 -229 -235 0
-37 -43 -193 -199 -229 0
-37 -43 -193 -199 -235 0
-37 -43 -193 -229 -235 0
-37 -43 -199 -229 -235 0
-37 -133 -139 -193 -199 0
-37 -133 -139 -193 -229 0
-37 -133 -139 -193 -235 0
-37 -133 -139 -199 -229 0
-37 -133 -139 -199 -235 0
-37 -133 -139 -229 -235 0
-37 -133 -193 -199 -229 0
-37 -133 -193 -199 -235 0
-37 -133 -193 -229 -235 0
-37 -133 -199 -229 -235 0
-37 -139 -193 -199 -229 0
-37 -139 -193 -199 -235 0
-37 -139 -193 -229 -235 0
-37 -139 -199 -229 -235 0
-37 -193 -199 -229 -235 0
-43 -133 -139 -193 -199 0
-43 -133 -139 -193 -229 0
-43 -133 -139 -193 -235 0
-43 -133 -139 -199 -229 0
-43 -133 -139 -199 -235 0
-43 -133 -139 -229 -235 0
-43 -133 -193 -199 -229 0
-43 -133 -193 -199 -235 0
-43 -133 -193 -229 -235 0
-43 -133 -199 -229 -235 0
-43 -139 -193 -199 -229 0
-43 -139 -193 -199 -235 0
-43 -139 -193 -229 -235 0
-43 -139 -199 -229 -235 0
-43 -193 -199 -229 -235 0
-133 -139 -193 -199 -229 0
-133 -139 -193 -199 -235 0
-133 -139 -193 -229 -235 0
-133 -139 -199 -229 -235 0
-133 -193 -199 -229 -235 0
-139 -193 -199 -229 -235 0
37 43 133 139 193 0
37 43 133 139 199 0
37 43 133 139 229 0
37 43 133 139 235 0
37 43 133 193 199 0
37 43 133 193 229 0
37 43 133 193 235 0
37 43 133 199 229 0
37 43 133 199 235 0
37 43 133 229 235 0
37 43 139 193 199 0
37 43 139 193 229 0
37 43 139 193 235 0
37 43 139 199 229 0
37 43 139 199 235 0
37 43 139 229 235 0
37 43 193 199 229 0
37 43 193 199 235 0
37 43 193 229 235 0
37 43 199 229 235 0
37 133 139 193 199 0
37 133 139 193 229 0
37 133 139 193 235 0
37 133 139 199 229 0
37 133 139 199 235 0
37 133 139 229 235 0
37 133 193 199 229 0
37 133 193 199 235 0
37 133 193 229 235 0
37 133 199 229 235 0
37 139 193 199 229 0
37 139 193 199 235 0
37 139 193 229 235 0
37 139 199 229 235 0
37 193 199 229 235 0
43 133 139 193 199 0
43 133 139 193 229 0
43 133 139 193 235 0
43 133 139 199 229 0
43 133 139 199 235 0
43 133 139 229 235 0
43 133 193 199 229 0
43 133 193 199 235 0
43 133 193 229 235 0
43 133 199 229 235 0
43 139 193 199 229 0
43 139 193 199 235 0
43 139 193 229 235 0
43 139 199 229 235 0
43 193 199 229 235 0
133 139 193 199 229 0
133 139 193 199 235 0
133 139 193 229 235 0
133 139 199 229 235 0
133 193 199 229 235 0
139 193 199 229 235 0
-40 -46 -136 -142 -196 0
-40 -46 -136 -142 -202 0
-40 -46 -136 -142 -232 0
-40 -46 -136 -142 -238 0
-40 -46 -136 -196 -202 0
-40 -46 -136 -196 -232 0
-40 -46 -136 -196 -238 0
-40 -46 -136 -202 -232 0
-40 -46 -136 -202 -238 0
-40 -46 -136 -232 -238 0
-40 -46 -142 -196 -202 0
-40 -46 -142 -196 -232 0
-40 -46 -142 -196 -238 0
-40 -46 -142 -202 -232 0
-40 -46 -142 -202 -238 0
-40 -46 -142 -232 -238 0
-40 -46 -196 -202 -232 0
-40 -46 -196 -202 -238 0
-40 -46 -196 -232 -238 0
-40 -46 -202 -232 -238 0
-40 -136 -142 -196 -202 0
-40 -136 -142 -196 -232 0
-40 -136 -142 -196 -238 0
-40 -136 -142 -202 -232 0
-40 -136 -142 -202 -238 0
-40 -136 -142 -232 -238 0
-40 -136 -196 -202 -232 0
-40 -136 -196 -202 -238 0
-40 -136 -196 -232 -238 0
-40 -136 -202 -232 -238 0
-40 -142 -196 -202 -232 0
-40 -142 -196 -202 -238 0
-40 -142 -196 -232 -238 0
-40 -142 -202 -232 -238 0
-40 -196 -202 -232 -238 0
-46 -136 -142 -196 -202 0
-46 -136 -142 -196 -232 0
-46 -136 -142 -196 -238 0
-46 -136 -142 -202 -232 0
-46 -136 -142 -202 -238 0
-46 -136 -142 -232 -238 0
-46 -136 -196 -202 -232 0
-46 -136 -196 -202 -238 0
-46 -136 -196 -232 -238 0
-46 -136 -202 -232 -238 0
-46 -142 -196 -202 -232 0
-46 -142 -196 -202 -238 0
-46 -142 -196 -232 -238 0
-46 -142 -202 -232 -238 0
-46 -196 -202 -232 -238 0
-136 -142 -196 -202 -232 0
-136 -142 -196 -202 -238 0
-136 -142 -196 -232 -238 0
-136 -142 -202 -232 -238 0
-136 -196 -202 -232 -238 0
-142 -196 -202 -232 -238 0
40 46 136 142 196 0
40 46 136 142 202 0
40 46 136 142 232 0
40 46 136 142 238 0
40 46 136 196 202 0
40 46 136 196 232 0
40 46 136 196 238 0
40 46 136 202 232 0
40 46 136 202 238 0
40 46 136 232 238 0
40 46 142 196 202 0
40 46 142 196 232 0
40 46 142 196 238 0
40 46 142 202 232 0
40 46 142 202 238 0
40 46 142 232 238 0
40 46 196 202 232 0
40 46 196 202 238 0
40 46 196 232 238 0
40 46 202 232 238 0
40 136 142 196 202 0
40 136 142 196 232 0
40 136 142 196 238 0
40 136 142 202 232 0
40 136 142 202 238 0
40 136 142 232 238 0
40 136 196 202 232 0
40 136 196 202 238 0
40 136 196 232 238 0
40 136 202 232 238 0
40 142 196 202 232 0
40 142 196 202 238 0
40 142 196 232 238 0
40 142 202 232 238 0
40 196 202 232 238 0
46 136 142 196 202 0
46 136 142 196 232 0
46 136 142 196 238 0
46 136 142 202 232 0
46 136 142 202 238 0
46 136 142 232 238 0
46 136 196 202 232 0
46 136 196 202 238 0
46 136 196 232 238 0
46 136 202 232 238 0
46 142 196 202 232 0
46 142 196 202 238 0
46 142 196 232 238 0
46 142 202 232 238 0
46 196 202 232 238 0
136 142 196 202 232 0
136 142 196 202 238 0
136 142 196 232 238 0
136 142 202 232 238 0
136 196 202 232 238 0
142 196 202 232 238 0
-453 -468 -693 0
-453 -468 -708 0
-453 -468 -843 0
-453 -468 -858 0
-453 -468 -933 0
-453 -468 -948 0
-453 -693 -708 0
-453 -693 -843 0
-453 -693 -858 0
-453 -693 -933 0
-453 -693 -948 0
-453 -708 -843 0
-453 -708 -858 0
-453 -708 -933 0
-453 -708 -948 0
-453 -843 -858 0
-453 -843 -933 0
-453 -843 -948 0
-453 -858 -933 0
-453 -858 -948 0
-453 -933 -948 0
-468 -693 -708 0
-468 -693 -843 0
-468 -693 -858 0
-468 -693 -933 0
-468 -693 -948 0
-468 -708 -843 0
-468 -708 -858 0
-468 -708 -933 0
-468 -708 -948 0
-468 -843 -858 0
-468 -843 -933 0
-468 -843 -948 0
-468 -858 -933 0
-468 -858 -948 0
-468 -933 -948 0
-693 -708 -843 0
-693 -708 -858 0
-693 -708 -933 0
-693 -708 -948 0
-693 -843 -858 0
-693 -843 -933 0
-693 -843 -948 0
-693 -858 -933 0
-693 -858 -948 0
-693 -933 -948 0
-708 -843 -858 0
-708 -843 -933 0
-708 -843 -948 0
-708 -858 -933 0
-708 -858 -948 0
-708 -933 -948 0
-843 -858 -933 0
-843 -858 -948 0
-843 -933 -948 0
-858 -933 -948 0
453 468 693 708 843 858 933 0
453 468 693 708 843 858 948 0
453 468 693 708 843 933 948 0
453 468 693 708 858 933 948 0
453 468 693 843 858 933 948 0
453 468 708 843 858 933 948 0
453 693 708 843 858 933 948 0
468 693 708 843 858 933 948 0
-289 -295 -349 0
-289 -295 -355 0
-289 -349 -355 0
-295 -349 -355 0
289 295 349 0
289 295 355 0
289 349 355 0
295 349 355 0
-292 -298 -352 0
-292 -298 -358 0
-292 -352 -358 0
-298 -352 -358 0
292 298 352 0
292 298 358 0
292 352 358 0
298 352 358 0
-1083 -1098 0
-1083 -1233 0
-1083 -1248 0
-1098 -1233 0
-1098 -1248 0
-1233 -1248 0
1083 1098 1233 1248 0
-25 -31 -73 -79 -157 0
-25 -31 -73 -79 -163 0
-25 -31 -73 -79 -265 0
-25 -31 -73 -79 -271 0
-25 -31 -73 -157 -163 0
-25 -31 -73 -157 -265 0
-25 -31 -73 -157 -271 0
-25 -31 -73 -163 -265 0
-25 -31 -73 -163 -271 0
-25 -31 -73 -265 -271 0
-25 -31 -79 -157 -163 0
-25 -31 -79 -157 -265 0
-25 -31 -79 -157 -271 0
-25 -31 -79 -163 -265 0
-25 -31 -79 -163 -271 0
-25 -31 -79 -265 -271 0
-25 -31 -157 -163 -265 0
-25 -31 -157 -163 -271 0
-25 -31 -157 -265 -271 0
-25 -31 -163 -265 -271 0
-25 -73 -79 -157 -163 0
-25 -73 -79 -157 -265 0
-25 -73 -79 -157 -271 0
-25 -73 -79 -163 -265 0
-25 -73 -79 -163 -271 0
-25 -73 -79 -265 -271 0
-25 -73 -157 -163 -265 0
-25 -73 -157 -163 -271 0
-25 -73 -157 -265 -271 0
-25 -73 -163 -265 -271 0
-25 -79 -157 -163 -265 0
-25 -79 -157 -163 -271 0
-25 -79 -157 -265 -271 0
-25 -79 -163 -265 -271 0
-25 -157 -163 -265 -271 0
-31 -73 -79 -157 -163 0
-31 -73 -79 -157 -265 0
-31 -73 -79 -157 -271 0
-31 -73 -79 -163 -265 0
-31 -73 -79 -163 -271 0
-31 -73 -79 -265 -271 0
-31 -73 -157 -163 -265 0
-31 -73 -157 -163 -271 0
-31 -73 -157 -265 -271 0
-31 -73 -163 -265 -271 0
-31 -79 -157 -163 -265 0
-31 -79 -157 -163 -271 0
-31 -79 -157 -265 -271 0
-31 -79 -163 -265 -271 0
-31 -157 -163 -265 -271 0
-73 -79 -157 -163 -265 0
-73 -79 -157 -163 -271 0
-73 -79 -157 -265 -271 0
-73 -79 -163 -265 -271 0
-73 -157 -163 -265 -271 0
-79 -157 -163 -265 -271 0
25 31 73 79 157 0
25 31 73 79 163 0
25 31 73 79 265 0
25 31 73 79 271 0
25 31 73 157 163 0
25 31 73 157 265 0
25 31 73 157 271 0
25 31 73 163 265 0
25 31 73 163 271 0
25 31 73 265 271 0
25 31 79 157 163 0
25 31 79 157 265 0
25 31 79 157 271 0
25 31 79 163 265 0
25 31 79 163 271 0
25 31 79 265 271 0
25 31 157 163 265 0
25 31 157 163 271 0
25 31 157 265 271 0
25 31 163 265 271 0
25 73 79 157 163 0
25 73 79 157 265 0
25 73 79 157 271 0
25 73 79 163 265 0
25 73 79 163 271 0
25 73 79 265 271 0
25 73 157 163 265 0
25 73 157 163 271 0
25 73 157 265 271 0
25 73 163 265 271 0
25 79 157 163 265 0
25 79 157 163 271 0
25 79 157 265 271 0
25 79 163 265 271 0
25 157 163 265 271 0
31 73 79 157 163 0
31 73 79 157 265 0
31 73 79 157 271 0
31 73 79 163 265 0
31 73 79 163 271 0
31 73 79 265 271 0
31 73 157 163 265 0
31 73 157 163 271 0
31 73 157 265 271 0
31 73 163 265 271 0
31 79 157 163 265 0
31 79 157 163 271 0
31 79 157 265 271 0
31 79 163 265 271 0
31 157 163 265 271 0
73 79 157 163 265 0
73 79 157 163 271 0
73 79 157 265 271 0
73 79 163 265 271 0
73 157 163 265 271 0
79 157 163 265 271 0
-28 -34 -76 -82 -160 0
-28 -34 -76 -82 -166 0
-28 -34 -76 -82 -268 0
-28 -34 -76 -82 -274 0
-28 -34 -76 -160 -166 0
-28 -34 -76 -160 -268 0
-28 -34 -76 -160 -274 0
-28 -34 -76 -166 -268 0
-28 -34 -76 -166 -274 0
-28 -34 -76 -268 -274 0
-28 -34 -82 -160 -166 0
-28 -34 -82 -160 -268 0
-28 -34 -82 -160 -274 0
-28 -34 -82 -166 -268 0
-28 -34 -82 -166 -274 0
-28 -34 -82 -268 -274 0
-28 -34 -160 -166 -268 0
-28 -34 -160 -166 -274 0
-28 -34 -160 -268 -274 0
-28 -34 -166 -268 -274 0
-28 -76 -82 -160 -166 0
-28 -76 -82 -160 -268 0
-28 -76 -82 -160 -274 0
-28 -76 -82 -166 -268 0
-28 -76 -82 -166 -274 0
-28 -76 -82 -268 -274 0
-28 -76 -160 -166 -268 0
-28 -76 -160 -166 -274 0
-28 -76 -160 -268 -274 0
-28 -76 -166 -268 -274 0
-28 -82 -160 -166 -268 0
-28 -82 -160 -166 -274 0
-28 -82 -160 -268 -274 0
-28 -82 -166 -268 -274 0
-28 -160 -166 -268 -274 0
-34 -76 -82 -160 -166 0
-34 -76 -82 -160 -268 0
-34 -76 -82 -160 -274 0
-34 -76 -82 -166 -268 0
-34 -76 -82 -166 -274 0
-34 -76 -82 -268 -274 0
-34 -76 -160 -166 -268 0
-34 -76 -160 -166 -274 0
-34 -76 -160 -268 -274 0
-34 -76 -166 -268 -274 0
-34 -82 -160 -166 -268 0
-34 -82 -160 -166 -274 0
-34 -82 -160 -268 -274 0
-34 -82 -166 -268 -274 0
-34 -160 -166 -268 -274 0
-76 -82 -160 -166 -268 0
-76 -82 -160 -166 -274 0
-76 -82 -160 -268 -274 0
-76 -82 -166 -268 -274 0
-76 -160 -166 -268 -274 0
-82 -160 -166 -268 -274 0
28 34 76 82 160 0
28 34 76 82 166 0
28 34 76 82 268 0
28 34 76 82 274 0
28 34 76 160 166 0
28 34 76 160 268 0
28 34 76 160 274 0
28 34 76 166 268 0
28 34 76 166 274 0
28 34 76 268 274 0
28 34 82 160 166 0
28 34 82 160 268 0
28 34 82 160 274 0
28 34 82 166 268 0
28 34 82 166 274 0
28 34 82 268 274 0
28 34 160 166 268 0
28 34 160 166 274 0
28 34 160 268 274 0
28 34 166 268 274 0
28 76 82 160 166 0
28 76 82 160 268 0
28 76 82 160 274 0
28 76 82 166 268 0
28 76 82 166 274 0
28 76 82 268 274 0
28 76 160 166 268 0
28 76 160 166 274 0
28 76 160 268 274 0
28 76 166 268 274 0
28 82 160 166 268 0
28 82 160 166 274 0
28 82 160 268 274 0
28 82 166 268 274 0
28 160 166 268 274 0
34 76 82 160 166 0
34 76 82 160 268 0
34 76 82 160 274 0
34 76 82 166 268 0
34 76 82 166 274 0
34 76 82 268 274 0
34 76 160 166 268 0
34 76 160 166 274 0
34 76 160 268 274 0
34 76 166 268 274 0
34 82 160 166 268 0
34 82 160 166 274 0
34 82 160 268 274 0
34 82 166 268 274 0
34 160 166 268 274 0
76 82 160 166 268 0
76 82 160 166 274 0
76 82 160 268 274 0
76 82 166 268 274 0
76 160 166 268 274 0
82 160 166 268 274 0
-423 -438 -543 0
-423 -438 -558 0
-423 -438 -753 0
-423 -438 -768 0
-423 -438 -1023 0
-423 -438 -1038 0
-423 -543 -558 0
-423 -543 -753 0
-423 -543 -768 0
-423 -543 -1023 0
-423 -543 -1038 0
-423 -558 -753 0
-423 -558 -768 0
-423 -558 -1023 0
-423 -558 -1038 0
-423 -753 -768 0
-423 -753 -1023 0
-423 -753 -1038 0
-423 -768 -1023 0
-423 -768 -1038 0
-423 -1023 -1038 0
-438 -543 -558 0
-438 -543 -753 0
-438 -543 -768 0
-438 -543 -1023 0
-438 -543 -1038 0
-438 -558 -753 0
-438 -558 -768 0
-438 -558 -1023 0
-438 -558 -1038 0
-438 -753 -768 0
-438 -753 -1023 0
-438 -753 -1038 0
-438 -768 -1023 0
-438 -768 -1038 0
-438 -1023 -1038 0
-543 -558 -753 0
-543 -558 -768 0
-543 -558 -1023 0
-543 -558 -1038 0
-543 -753 -768 0
-543 -753 -1023 0
-543 -753 -1038 0
-543 -768 -1023 0
-543 -768 -1038 0
-543 -1023 -1038 0
-558 -753 -768 0
-558 -753 -1023 0
-558 -753 -1038 0
-558 -768 -1023 0
-558 -768 -1038 0
-558 -1023 -1038 0
-753 -768 -1023 0
-753 -768 -1038 0
-753 -1023 -1038 0
-768 -1023 -1038 0
423 438 543 558 753 768 1023 0
423 438 543 558 753 768 1038 0
423 438 543 558 753 1023 1038 0
423 438 543 558 768 1023 1038 0
423 438 543 753 768 1023 1038 0
423 438 558 753 768 1023 1038 0
423 543 558 753 768 1023 1038 0
438 543 558 753 768 1023 1038 0
-61 -67 -109 -115 -169 0
-61 -67 -109 -115 -175 0
-61 -67 -109 -115 -217 0
-61 -67 -109 -115 -223 0
-61 -67 -109 -169 -175 0
-61 -67 -109 -169 -217 0
-61 -67 -109 -169 -223 0
-61 -67 -109 -175 -217 0
-61 -67 -109 -175 -223 0
-61 -67 -109 -217 -223 0
-61 -67 -115 -169 -175 0
-61 -67 -115 -169 -217 0
-61 -67 -115 -169 -223 0
-61 -67 -115 -175 -217 0
-61 -67 -115 -175 -223 0
-61 -67 -115 -217 -223 0
-61 -67 -169 -175 -217 0
-61 -67 -169 -175 -223 0
-61 -67 -169 -217 -223 0
-61 -67 -175 -217 -223 0
-61 -109 -115 -169 -175 0
-61 -109 -115 -169 -217 0
-61 -109 -115 -169 -223 0
-61 -109 -115 -175 -217 0
-61 -109 -115 -175 -223 0
-61 -109 -115 -217 -223 0
-61 -109 -169 -175 -217 0
-61 -109 -169 -175 -223 0
-61 -109 -169 -217 -223 0
-61 -109 -175 -217 -223 0
-61 -115 -169 -175 -217 0
-61 -115 -169 -175 -223 0
-61 -115 -169 -217 -223 0
-61 -115 -175 -217 -223 0
-61 -169 -175 -217 -223 0
-67 -109 -115 -169 -175 0
-67 -109 -115 -169 -217 0
-67 -109 -115 -169 -223 0
-67 -109 -115 -175 -217 0
-67 -109 -115 -175 -223 0
-67 -109 -115 -217 -223 0
-67 -109 -169 -175 -217 0
-67 -109 -169 -175 -223 0
-67 -109 -169 -217 -223 0
-67 -109 -175 -217 -223 0
-67 -115 -169 -175 -217 0
-67 -115 -169 -175 -223 0
-67 -115 -169 -217 -223 0
-67 -115 -175 -217 -223 0
-67 -169 -175 -217 -223 0
-109 -115 -169 -175 -217 0
-109 -115 -169 -175 -223 0
-109 -115 -169 -217 -223 0
-109 -115 -175 -217 -223 0
-109 -169 -175 -217 -223 0
-115 -169 -175 -217 -223 0
61 67 109 115 169 0
61 67 109 115 175 0
61 67 109 115 217 0
61 67 109 115 223 0
61 67 109 169 175 0
61 67 109 169 217 0
61 67 109 169 223 0
61 67 109 175 217 0
61 67 109 175 223 0
61 67 109 217 223 0
61 67 115 169 175 0
61 67 115 169 217 0
61 67 115 169 223 0
61 67 115 175 217 0
61 67 115 175 223 0
61 67 115 217 223 0
61 67 169 175 217 0
61 67 169 175 223 0
61 67 169 217 223 0
61 67 175 217 223 0
61 109 115 169 175 0
61 109 115 169 217 0
61 109 115 169 223 0
61 109 115 175 217 0
61 109 115 175 223 0
61 109 115 217 223 0
61 109 169 175 217 0
61 109 169 175 223 0
61 109 169 217 223 0
61 109 175 217 223 0
61 115 169 175 217 0
61 115 169 175 223 0
61 115 169 217 223 0
61 115 175 217 223 0
61 169 175 217 223 0
67 109 115 169 175 0
67 109 115 169 217 0
67 109 115 169 223 0
67 109 115 175 217 0
67 109 115 175 223 0
67 109 115 217 223 0
67 109 169 175 217 0
67 109 169 175 223 0
67 109 169 217 223 0
67 109 175 217 223 0
67 115 169 175 217 0
67 115 169 175 223 0
67 115 169 217 223 0
67 115 175 217 223 0
67 169 175 217 223 0
109 115 169 175 217 0
109 115 169 175 223 0
109 115 169 217 223 0
109 115 175 217 223 0
109 169 175 217 223 0
115 169 175 217 223 0
-64 -70 -112 -118 -172 0
-64 -70 -112 -118 -178 0
-64 -70 -112 -118 -220 0
-64 -70 -112 -118 -226 0
-64 -70 -112 -172 -178 0
-64 -70 -112 -172 -220 0
-64 -70 -112 -172 -226 0
-64 -70 -112 -178 -220 0
-64 -70 -112 -178 -226 0
-64 -70 -112 -220 -226 0
-64 -70 -118 -172 -178 0
-64 -70 -118 -172 -220 0
-64 -70 -118 -172 -226 0
-64 -70 -118 -178 -220 0
-64 -70 -118 -178 -226 0
-64 -70 -118 -220 -226 0
-64 -70 -172 -178 -220 0
-64 -70 -172 -178 -226 0
-64 -70 -172 -220 -226 0
-64 -70 -178 -220 -226 0
-64 -112 -118 -172 -178 0
-64 -112 -118 -172 -220 0
-64 -112 -118 -172 -226 0
-64 -112 -118 -178 -220 0
-64 -112 -118 -178 -226 0
-64 -112 -118 -220 -226 0
-64 -112 -172 -178 -220 0
-64 -112 -172 -178 -226 0
-64 -112 -172 -220 -226 0
-64 -112 -178 -220 -226 0
-64 -118 -172 -178 -220 0
-64 -118 -172 -178 -226 0
-64 -118 -172 -220 -226 0
-64 -118 -178 -220 -226 0
-64 -172 -178 -220 -226 0
-70 -112 -118 -172 -178 0
-70 -112 -118 -172 -220 0
-70 -112 -118 -172 -226 0
-70 -112 -118 -178 -220 0
-70 -112 -118 -178 -226 0
-70 -112 -118 -220 -226 0
-70 -112 -172 -178 -220 0
-70 -112 -172 -178 -226 0
-70 -112 -172 -220 -226 0
-70 -112 -178 -220 -226 0
-70 -118 -172 -178 -220 0
-70 -118 -172 -178 -226 0
-70 -118 -172 -220 -226 0
-70 -118 -178 -220 -226 0
-70 -172 -178 -220 -226 0
-112 -118 -172 -178 -220 0
-112 -118 -172 -178 -226 0
-112 -118 -172 -220 -226 0
-112 -118 -178 -220 -226 0
-112 -172 -178 -220 -226 0
-118 -172 -178 -220 -226 0
64 70 112 118 172 0
64 70 112 118 178 0
64 70 112 118 220 0
64 70 112 118 226 0
64 70 112 172 178 0
64 70 112 172 220 0
64 70 112 172 226 0
64 70 112 178 220 0
64 70 112 178 226 0
64 70 112 220 226 0
64 70 118 172 178 0
64 70 118 172 220 0
64 70 118 172 226 0
64 70 118 178 220 0
64 70 118 178 226 0
64 70 118 220 226 0
64 70 172 178 220 0
64 70 172 178 226 0
64 70 172 220 226 0
64 70 178 220 226 0
64 112 118 172 178 0
64 112 118 172 220 0
64 112 118 172 226 0
64 112 118 178 220 0
64 112 118 178 226 0
64 112 118 220 226 0
64 112 172 178 220 0
64 112 172 178 226 0
64 112 172 220 226 0
64 112 178 220 226 0
64 118 172 178 220 0
64 118 172 178 226 0
64 118 172 220 226 0
64 118 178 220 226 0
64 172 178 220 226 0
70 112 118 172 178 0
70 112 118 172 220 0
70 112 118 172 226 0
70 112 118 178 220 0
70 112 118 178 226 0
70 112 118 220 226 0
70 112 172 178 220 0
70 112 172 178 226 0
70 112 172 220 226 0
70 112 178 220 226 0
70 118 172 178 220 0
70 118 172 178 226 0
70 118 172 220 226 0
70 118 178 220 226 0
70 172 178 220 226 0
112 118 172 178 220 0
112 118 172 178 226 0
112 118 172 220 226 0
112 118 178 220 226 0
112 172 178 220 226 0
118 172 178 220 226 0
-513 -528 -633 0
-513 -528 -648 0
-513 -528 -783 0
-513 -528 -798 0
-513 -528 -903 0
-513 -528 -918 0
-513 -633 -648 0
-513 -633 -783 0
-513 -633 -798 0
-513 -633 -903 0
-513 -633 -918 0
-513 -648 -783 0
-513 -648 -798 0
-513 -648 -903 0
-513 -648 -918 0
-513 -783 -798 0
-513 -783 -903 0
-513 -783 -918 0
-513 -798 -903 0
-513 -798 -918 0
-513 -903 -918 0
-528 -633 -648 0
-528 -633 -783 0
-528 -633 -798 0
-528 -633 -903 0
-528 -633 -918 0
-528 -648 -783 0
-528 -648 -798 0
-528 -648 -903 0
-528 -648 -918 0
-528 -783 -798 0
-528 -783 -903 0
-528 -783 -918 0
-528 -798 -903 0
-528 -798 -918 0
-528 -903 -918 0
-633 -648 -783 0
-633 -648 -798 0
-633 -648 -903 0
-633 -648 -918 0
-633 -783 -798 0
-633 -783 -903 0
-633 -783 -918 0
-633 -798 -903 0
-633 -798 -918 0
-633 -903 -918 0
-648 -783 -798 0
-648 -783 -903 0
-648 -783 -918 0
-648 -798 -903 0
-648 -798 -918 0
-648 -903 -918 0
-783 -798 -903 0
-783 -798 -918 0
-783 -903 -918 0
-798 -903 -918 0
513 528 633 648 783 798 903 0
513 528 633 648 783 798 918 0
513 528 633 648 783 903 918 0
513 528 633 648 798 903 918 0
513 528 633 783 798 903 918 0
513 528 648 783 798 903 918 0
513 633 648 783 798 903 918 0
528 633 648 783 798 903 918 0
-49 -55 -85 -91 -145 0
-49 -55 -85 -91 -151 0
-49 -55 -85 -91 -241 0
-49 -55 -85 -91 -247 0
-49 -55 -85 -145 -151 0
-49 -55 -85 -145 -241 0
-49 -55 -85 -145 -247 0
-49 -55 -85 -151 -241 0
-49 -55 -85 -151 -247 0
-49 -55 -85 -241 -247 0
-49 -55 -91 -145 -151 0
-49 -55 -91 -145 -241 0
-49 -55 -91 -145 -247 0
-49 -55 -91 -151 -241 0
-49 -55 -91 -151 -247 0
-49 -55 -91 -241 -247 0
-49 -55 -145 -151 -241 0
-49 -55 -145 -151 -247 0
-49 -55 -145 -241 -247 0
-49 -55 -151 -241 -247 0
-49 -85 -91 -145 -151 0
-49 -85 -91 -145 -241 0
-49 -85 -91 -145 -247 0
-49 -85 -91 -151 -241 0
-49 -85 -91 -151 -247 0
-49 -85 -91 -241 -247 0
-49 -85 -145 -151 -241 0
-49 -85 -145 -151 -247 0
-49 -85 -145 -241 -247 0
-49 -85 -151 -241 -247 0
-49 -91 -145 -151 -241 0
-49 -91 -145 -151 -247 0
-49 -91 -145 -241 -247 0
-49 -91 -151 -241 -247 0
-49 -145 -151 -241 -247 0
-55 -85 -91 -145 -151 0
-55 -85 -91 -145 -241 0
-55 -85 -91 -145 -247 0
-55 -85 -91 -151 -241 0
-55 -85 -91 -151 -247 0
-55 -85 -91 -241 -247 0
-55 -85 -145 -151 -241 0
-55 -85 -145 -151 -247 0
-55 -85 -145 -241 -247 0
-55 -85 -151 -241 -247 0
-55 -91 -145 -151 -241 0
-55 -91 -145 -151 -247 0
-55 -91 -145 -241 -247 0
-55 -91 -151 -241 -247 0
-55 -145 -151 -241 -247 0
-85 -91 -145 -151 -241 0
-85 -91 -145 -151 -247 0
-85 -91 -145 -241 -247 0
-85 -91 -151 -241 -247 0
-85 -145 -151 -241 -247 0
-91 -145 -151 -241 -247 0
49 55 85 91 145 0
49 55 85 91 151 0
49 55 85 91 241 0
49 55 85 91 247 0
49 55 85 145 151 0
49 55 85 145 241 0
49 55 85 145 247 0
49 55 85 151 241 0
49 55 85 151 247 0
49 55 85 241 247 0
49 55 91 145 151 0
49 55 91 145 241 0
49 55 91 145 247 0
49 55 91 151 241 0
49 55 91 151 247 0
49 55 91 241 247 0
49 55 145 151 241 0
49 55 145 151 247 0
49 55 145 241 247 0
49 55 151 241 247 0
49 85 91 145 151 0
49 85 91 145 241 0
49 85 91 145 247 0
49 85 91 151 241 0
49 85 91 151 247 0
49 85 91 241 247 0
49 85 145 151 241 0
49 85 145 151 247 0
49 85 145 241 247 0
49 85 151 241 247 0
49 91 145 151 241 0
49 91 145 151 247 0
49 91 145 241 247 0
49 91 151 241 247 0
49 145 151 241 247 0
55 85 91 145 151 0
55 85 91 145 241 0
55 85 91 145 247 0
55 85 91 151 241 0
55 85 91 151 247 0
55 85 91 241 247 0
55 85 145 151 241 0
55 85 145 151 247 0
55 85 145 241 247 0
55 85 151 241 247 0
55 91 145 151 241 0
55 91 145 151 247 0
55 91 145 241 247 0
55 91 151 241 247 0
55 145 151 241 247 0
85 91 145 151 241 0
85 91 145 151 247 0
85 91 145 241 247 0
85 91 151 241 247 0
85 145 151 241 247 0
91 145 151 241 247 0
-52 -58 -88 -94 -148 0
-52 -58 -88 -94 -154 0
-52 -58 -88 -94 -244 0
-52 -58 -88 -94 -250 0
-52 -58 -88 -148 -154 0
-52 -58 -88 -148 -244 0
-52 -58 -88 -148 -250 0
-52 -58 -88 -154 -244 0
-52 -58 -88 -154 -250 0
-52 -58 -88 -244 -250 0
-52 -58 -94 -148 -154 0
-52 -58 -94 -148 -244 0
-52 -58 -94 -148 -250 0
-52 -58 -94 -154 -244 0
-52 -58 -94 -154 -250 0
-52 -58 -94 -244 -250 0
-52 -58 -148 -154 -244 0
-52 -58 -148 -154 -250 0
-52 -58 -148 -244 -250 0
-52 -58 -154 -244 -250 0
-52 -88 -94 -148 -154 0
-52 -88 -94 -148 -244 0
-52 -88 -94 -148 -250 0
-52 -88 -94 -154 -244 0
-52 -88 -94 -154 -250 0
-52 -88 -94 -244 -250 0
-52 -88 -148 -154 -244 0
-52 -88 -148 -154 -250 0
-52 -88 -148 -244 -250 0
-52 -88 -154 -244 -250 0
-52 -94 -148 -154 -244 0
-52 -94 -148 -154 -250 0
-52 -94 -148 -244 -250 0
-52 -94 -154 -244 -250 0
-52 -148 -154 -244 -250 0
-58 -88 -94 -148 -154 0
-58 -88 -94 -148 -244 0
-58 -88 -94 -148 -250 0
-58 -88 -94 -154 -244 0
-58 -88 -94 -154 -250 0
-58 -88 -94 -244 -250 0
-58 -88 -148 -154 -244 0
-58 -88 -148 -154 -250 0
-58 -88 -148 -244 -250 0
-58 -88 -154 -244 -250 0
-58 -94 -148 -154 -244 0
-58 -94 -148 -154 -250 0
-58 -94 -148 -244 -250 0
-58 -94 -154 -244 -250 0
-58 -148 -154 -244 -250 0
-88 -94 -148 -154 -244 0
-88 -94 -148 -154 -250 0
-88 -94 -148 -244 -250 0
-88 -94 -154 -244 -250 0
-88 -148 -154 -244 -250 0
-94 -148 -154 -244 -250 0
52 58 88 94 148 0
52 58 88 94 154 0
52 58 88 94 244 0
52 58 88 94 250 0
52 58 88 148 154 0
52 58 88 148 244 0
52 58 88 148 250 0
52 58 88 154 244 0
52 58 88 154 250 0
52 58 88 244 250 0
52 58 94 148 154 0
52 58 94 148 244 0
52 58 94 148 250 0
52 58 94 154 244 0
52 58 94 154 250 0
52 58 94 244 250 0
52 58 148 154 244 0
52 58 148 154 250 0
52 58 148 244 250 0
52 58 154 244 250 0
52 88 94 148 154 0
52 88 94 148 244 0
52 88 94 148 250 0
52 88 94 154 244 0
52 88 94 154 250 0
52 88 94 244 250 0
52 88 148 154 244 0
52 88 148 154 250 0
52 88 148 244 250 0
52 88 154 244 250 0
52 94 148 154 244 0
52 94 148 154 250 0
52 94 148 244 250 0
52 94 154 244 250 0
52 148 154 244 250 0
58 88 94 148 154 0
58 88 94 148 244 0
58 88 94 148 250 0
58 88 94 154 244 0
58 88 94 154 250 0
58 88 94 244 250 0
58 88 148 154 244 0
58 88 148 154 250 0
58 88 148 244 250 0
58 88 154 244 250 0
58 94 148 154 244 0
58 94 148 154 250 0
58 94 148 244 250 0
58 94 154 244 250 0
58 148 154 244 250 0
88 94 148 154 244 0
88 94 148 154 250 0
88 94 148 244 250 0
88 94 154 244 250 0
88 148 154 244 250 0
94 148 154 244 250 0
-483 -498 -573 0
-483 -498 -588 0
-483 -498 -723 0
-483 -498 -738 0
-483 -498 -963 0
-483 -498 -978 0
-483 -573 -588 0
-483 -573 -723 0
-483 -573 -738 0
-483 -573 -963 0
-483 -573 -978 0
-483 -588 -723 0
-483 -588 -738 0
-483 -588 -963 0
-483 -588 -978 0
-483 -723 -738 0
-483 -723 -963 0
-483 -723 -978 0
-483 -738 -963 0
-483 -738 -978 0
-483 -963 -978 0
-498 -573 -588 0
-498 -573 -723 0
-498 -573 -738 0
-498 -573 -963 0
-498 -573 -978 0
-498 -588 -723 0
-498 -588 -738 0
-498 -588 -963 0
-498 -588 -978 0
-498 -723 -738 0
-498 -723 -963 0
-498 -723 -978 0
-498 -738 -963 0
-498 -738 -978 0
-498 -963 -978 0
-573 -588 -723 0
-573 -588 -738 0
-573 -588 -963 0
-573 -588 -978 0
-573 -723 -738 0
-573 -723 -963 0
-573 -723 -978 0
-573 -738 -963 0
-573 -738 -978 0
-573 -963 -978 0
-588 -723 -738 0
-588 -723 -963 0
-588 -723 -978 0
-588 -738 -963 0
-588 -738 -978 0
-588 -963 -978 0
-723 -738 -963 0
-723 -738 -978 0
-723 -963 -978 0
-738 -963 -978 0
483 498 573 588 723 738 963 0
483 498 573 588 723 738 978 0
483 498 573 588 723 963 978 0
483 498 573 588 738 963 978 0
483 498 573 723 738 963 978 0
483 498 588 723 738 963 978 0
483 573 588 723 738 963 978 0
498 573 588 723 738 963 978 0
-301 -307 -325 0
-301 -307 -331 0
-301 -325 -331 0
-307 -325 -331 0
301 307 325 0
301 307 331 0
301 325 331 0
307 325 331 0
-304 -310 -328 0
-304 -310 -334 0
-304 -328 -334 0
-310 -328 -334 0
304 310 328 0
304 310 334 0
304 328 334 0
310 328 334 0
-1113 -1128 0
-1113 -1173 0
-1113 -1188 0
-1128 -1173 0
-1128 -1188 0
-1173 -1188 0
1113 1128 1173 1188 0
-181 -187 -205 0
-181 -187 -211 0
-181 -205 -211 0
-187 -205 -211 0
181 187 205 0
181 187 211 0
181 205 211 0
187 205 211 0
-185 -191 -209 0
-185 -191 -215 0
-185 -209 -215 0
-191 -209 -215 0
185 191 209 0
185 191 215 0
185 209 215 0
191 209 215 0
-814 -829 0
-814 -874 0
-814 -889 0
-829 -874 0
-829 -889 0
-874 -889 0
814 829 874 889 0
-1 -7 -121 -127 -277 0
-1 -7 -121 -127 -283 0
-1 -7 -121 -127 -313 0
-1 -7 -121 -127 -319 0
-1 -7 -121 -277 -283 0
-1 -7 -121 -277 -313 0
-1 -7 -121 -277 -319 0
-1 -7 -121 -283 -313 0
-1 -7 -121 -283 -319 0
-1 -7 -121 -313 -319 0
-1 -7 -127 -277 -283 0
-1 -7 -127 -277 -313 0
-1 -7 -127 -277 -319 0
-1 -7 -127 -283 -313 0
-1 -7 -127 -283 -319 0
-1 -7 -127 -313 -319 0
-1 -7 -277 -283 -313 0
-1 -7 -277 -283 -319 0
-1 -7 -277 -313 -319 0
-1 -7 -283 -313 -319 0
-1 -121 -127 -277 -283 0
-1 -121 -127 -277 -313 0
-1 -121 -127 -277 -319 0
-1 -121 -127 -283 -313 0
-1 -121 -127 -283 -319 0
-1 -121 -127 -313 -319 0
-1 -121 -277 -283 -313 0
-1 -121 -277 -283 -319 0
-1 -121 -277 -313 -319 0
-1 -121 -283 -313 -319 0
-1 -127 -277 -283 -313 0
-1 -127 -277 -283 -319 0
-1 -127 -277 -313 -319 0
-1 -127 -283 -313 -319 0
-1 -277 -283 -313 -319 0
-7 -121 -127 -277 -283 0
-7 -121 -127 -277 -313 0
-7 -121 -127 -277 -319 0
-7 -121 -127 -283 -313 0
-7 -121 -127 -283 -319 0
-7 -121 -127 -313 -319 0
-7 -121 -277 -283 -313 0
-7 -121 -277 -283 -319 0
-7 -121 -277 -313 -319 0
-7 -121 -283 -313 -319 0
-7 -127 -277 -283 -313 0
-7 -127 -277 -283 -319 0
-7 -127 -277 -313 -319 0
-7 -127 -283 -313 -319 0
-7 -277 -283 -313 -319 0
-121 -127 -277 -283 -313 0
-121 -127 -277 -283 -319 0
-121 -127 -277 -313 -319 0
-121 -127 -283 -313 -319 0
-121 -277 -283 -313 -319 0
-127 -277 -283 -313 -319 0
1 7 121 127 277 0
1 7 121 127 283 0
1 7 121 127 313 0
1 7 121 127 319 0
1 7 121 277 283 0
1 7 121 277 313 0
1 7 121 277 319 0
1 7 121 283 313 0
1 7 121 283 319 0
1 7 121 313 319 0
1 7 127 277 283 0
1 7 127 277 313 0
1 7 127 277 319 0
1 7 127 283 313 0
1 7 127 283 319 0
1 7 127 313 319 0
1 7 277 283 313 0
1 7 277 283 319 0
1 7 277 313 319 0
1 7 283 313 319 0
1 121 127 277 283 0
1 121 127 277 313 0
1 121 127 277 319 0
1 121 127 283 313 0
1 121 127 283 319 0
1 121 127 313 319 0
1 121 277 283 313 0
1 121 277 283 319 0
1 121 277 313 319 0
1 121 283 313 319 0
1 127 277 283 313 0
1 127 277 283 319 0
1 127 277 313 319 0
1 127 283 313 319 0
1 277 283 313 319 0
7 121 127 277 283 0
7 121 127 277 313 0
7 121 127 277 319 0
7 121 127 283 313 0
7 121 127 283 319 0
7 121 127 313 319 0
7 121 277 283 313 0
7 121 277 283 319 0
7 121 277 313 319 0
7 121 283 313 319 0
7 127 277 283 313 0
7 127 277 283 319 0
7 127 277 313 319 0
7 127 283 313 319 0
7 277 283 313 319 0
121 127 277 283 313 0
121 127 277 283 319 0
121 127 277 313 319 0
121 127 283 313 319 0
121 277 283 313 319 0
127 277 283 313 319 0
-5 -11 -125 -131 -281 0
-5 -11 -125 -131 -287 0
-5 -11 -125 -131 -317 0
-5 -11 -125 -131 -323 0
-5 -11 -125 -281 -287 0
-5 -11 -125 -281 -317 0
-5 -11 -125 -281 -323 0
-5 -11 -125 -287 -317 0
-5 -11 -125 -287 -323 0
-5 -11 -125 -317 -323 0
-5 -11 -131 -281 -287 0
-5 -11 -131 -281 -317 0
-5 -11 -131 -281 -323 0
-5 -11 -131 -287 -317 0
-5 -11 -131 -287 -323 0
-5 -11 -131 -317 -323 0
-5 -11 -281 -287 -317 0
-5 -11 -281 -287 -323 0
-5 -11 -281 -317 -323 0
-5 -11 -287 -317 -323 0
-5 -125 -131 -281 -287 0
-5 -125 -131 -281 -317 0
-5 -125 -131 -281 -323 0
-5 -125 -131 -287 -317 0
-5 -125 -131 -287 -323 0
-5 -125 -131 -317 -323 0
-5 -125 -281 -287 -317 0
-5 -125 -281 -287 -323 0
-5 -125 -281 -317 -323 0
-5 -125 -287 -317 -323 0
-5 -131 -281 -287 -317 0
-5 -131 -281 -287 -323 0
-5 -131 -281 -317 -323 0
-5 -131 -287 -317 -323 0
-5 -281 -287 -317 -323 0
-11 -125 -131 -281 -287 0
-11 -125 -131 -281 -317 0
-11 -125 -131 -281 -323 0
-11 -125 -131 -287 -317 0
-11 -125 -131 -287 -323 0
-11 -125 -131 -317 -323 0
-11 -125 -281 -287 -317 0
-11 -125 -281 -287 -323 0
-11 -125 -281 -317 -323 0
-11 -125 -287 -317 -323 0
-11 -131 -281 -287 -317 0
-11 -131 -281 -287 -323 0
-11 -131 -281 -317 -323 0
-11 -131 -287 -317 -323 0
-11 -281 -287 -317 -323 0
-125 -131 -281 -287 -317 0
-125 -131 -281 -287 -323 0
-125 -131 -281 -317 -323 0
-125 -131 -287 -317 -323 0
-125 -281 -287 -317 -323 0
-131 -281 -287 -317 -323 0
5 11 125 131 281 0
5 11 125 131 287 0
5 11 125 131 317 0
5 11 125 131 323 0
5 11 125 281 287 0
5 11 125 281 317 0
5 11 125 281 323 0
5 11 125 287 317 0
5 11 125 287 323 0
5 11 125 317 323 0
5 11 131 281 287 0
5 11 131 281 317 0
5 11 131 281 323 0
5 11 131 287 317 0
5 11 131 287 323 0
5 11 131 317 323 0
5 11 281 287 317 0
5 11 281 287 323 0
5 11 281 317 323 0
5 11 287 317 323 0
5 125 131 281 287 0
5 125 131 281 317 0
5 125 131 281 323 0
5 125 131 287 317 0
5 125 131 287 323 0
5 125 131 317 323 0
5 125 281 287 317 0
5 125 281 287 323 0
5 125 281 317 323 0
5 125 287 317 323 0
5 131 281 287 317 0
5 131 281 287 323 0
5 131 281 317 323 0
5 131 287 317 323 0
5 281 287 317 323 0
11 125 131 281 287 0
11 125 131 281 317 0
11 125 131 281 323 0
11 125 131 287 317 0
11 125 131 287 323 0
11 125 131 317 323 0
11 125 281 287 317 0
11 125 281 287 323 0
11 125 281 317 323 0
11 125 287 317 323 0
11 131 281 287 317 0
11 131 281 287 323 0
11 131 281 317 323 0
11 131 287 317 323 0
11 281 287 317 323 0
125 131 281 287 317 0
125 131 281 287 323 0
125 131 281 317 323 0
125 131 287 317 323 0
125 281 287 317 323 0
131 281 287 317 323 0
-364 -379 -664 0
-364 -379 -679 0
-364 -379 -1054 0
-364 -379 -1069 0
-364 -379 -1144 0
-364 -379 -1159 0
-364 -664 -679 0
-364 -664 -1054 0
-364 -664 -1069 0
-364 -664 -1144 0
-364 -664 -1159 0
-364 -679 -1054 0
-364 -679 -1069 0
-364 -679 -1144 0
-364 -679 -1159 0
-364 -1054 -1069 0
-364 -1054 -1144 0
-364 -1054 -1159 0
-364 -1069 -1144 0
-364 -1069 -1159 0
-364 -1144 -1159 0
-379 -664 -679 0
-379 -664 -1054 0
-379 -664 -1069 0
-379 -664 -1144 0
-379 -664 -1159 0
-379 -679 -1054 0
-379 -679 -1069 0
-379 -679 -1144 0
-379 -679 -1159 0
-379 -1054 -1069 0
-379 -1054 -1144 0
-379 -1054 -1159 0
-379 -1069 -1144 0
-379 -1069 -1159 0
-379 -1144 -1159 0
-664 -679 -1054 0
-664 -679 -1069 0
-664 -679 -1144 0
-664 -679 -1159 0
-664 -1054 -1069 0
-664 -1054 -1144 0
-664 -1054 -1159 0
-664 -1069 -1144 0
-664 -1069 -1159 0
-664 -1144 -1159 0
-679 -1054 -1069 0
-679 -1054 -1144 0
-679 -1054 -1159 0
-679 -1069 -1144 0
-679 -1069 -1159 0
-679 -1144 -1159 0
-1054 -1069 -1144 0
-1054 -1069 -1159 0
-1054 -1144 -1159 0
-1069 -1144 -1159 0
364 379 664 679 1054 1069 1144 0
364 379 664 679 1054 1069 1159 0
364 379 664 679 1054 1144 1159 0
364 379 664 679 1069 1144 1159 0
364 379 664 1054 1069 1144 1159 0
364 379 679 1054 1069 1144 1159 0
364 664 679 1054 1069 1144 1159 0
379 664 679 1054 1069 1144 1159 0
-13 -19 -97 -103 -253 0
-13 -19 -97 -103 -259 0
-13 -19 -97 -103 -337 0
-13 -19 -97 -103 -343 0
-13 -19 -97 -253 -259 0
-13 -19 -97 -253 -337 0
-13 -19 -97 -253 -343 0
-13 -19 -97 -259 -337 0
-13 -19 -97 -259 -343 0
-13 -19 -97 -337 -343 0
-13 -19 -103 -253 -259 0
-13 -19 -103 -253 -337 0
-13 -19 -103 -253 -343 0
-13 -19 -103 -259 -337 0
-13 -19 -103 -259 -343 0
-13 -19 -103 -337 -343 0
-13 -19 -253 -259 -337 0
-13 -19 -253 -259 -343 0
-13 -19 -253 -337 -343 0
-13 -19 -259 -337 -343 0
-13 -97 -103 -253 -259 0
-13 -97 -103 -253 -337 0
-13 -97 -103 -253 -343 0
-13 -97 -103 -259 -337 0
-13 -97 -103 -259 -343 0
-13 -97 -103 -337 -343 0
-13 -97 -253 -259 -337 0
-13 -97 -253 -259 -343 0
-13 -97 -253 -337 -343 0
-13 -97 -259 -337 -343 0
-13 -103 -253 -259 -337 0
-13 -103 -253 -259 -343 0
-13 -103 -253 -337 -343 0
-13 -103 -259 -337 -343 0
-13 -253 -259 -337 -343 0
-19 -97 -103 -253 -259 0
-19 -97 -103 -253 -337 0
-19 -97 -103 -253 -343 0
-19 -97 -103 -259 -337 0
-19 -97 -103 -259 -343 0
-19 -97 -103 -337 -343 0
-19 -97 -253 -259 -337 0
-19 -97 -253 -259 -343 0
-19 -97 -253 -337 -343 0
-19 -97 -259 -337 -343 0
-19 -103 -253 -259 -337 0
-19 -103 -253 -259 -343 0
-19 -103 -253 -337 -343 0
-19 -103 -259 -337 -343 0
-19 -253 -259 -337 -343 0
-97 -103 -253 -259 -337 0
-97 -103 -253 -259 -343 0
-97 -103 -253 -337 -343 0
-97 -103 -259 -337 -343 0
-97 -253 -259 -337 -343 0
-103 -253 -259 -337 -343 0
13 19 97 103 253 0
13 19 97 103 259 0
13 19 97 103 337 0
13 19 97 103 343 0
13 19 97 253 259 0
13 19 97 253 337 0
13 19 97 253 343 0
13 19 97 259 337 0
13 19 97 259 343 0
13 19 97 337 343 0
13 19 103 253 259 0
13 19 103 253 337 0
13 19 103 253 343 0
13 19 103 259 337 0
13 19 103 259 343 0
13 19 103 337 343 0
13 19 253 259 337 0
13 19 253 259 343 0
13 19 253 337 343 0
13 19 259 337 343 0
13 97 103 253 259 0
13 97 103 253 337 0
13 97 103 253 343 0
13 97 103 259 337 0
13 97 103 259 343 0
13 97 103 337 343 0
13 97 253 259 337 0
13 97 253 259 343 0
13 97 253 337 343 0
13 97 259 337 343 0
13 103 253 259 337 0
13 103 253 259 343 0
13 103 253 337 343 0
13 103 259 337 343 0
13 253 259 337 343 0
19 97 103 253 259 0
19 97 103 253 337 0
19 97 103 253 343 0
19 97 103 259 337 0
19 97 103 259 343 0
19 97 103 337 343 0
19 97 253 259 337 0
19 97 253 259 343 0
19 97 253 337 343 0
19 97 259 337 343 0
19 103 253 259 337 0
19 103 253 259 343 0
19 103 253 337 343 0
19 103 259 337 343 0
19 253 259 337 343 0
97 103 253 259 337 0
97 103 253 259 343 0
97 103 253 337 343 0
97 103 259 337 343 0
97 253 259 337 343 0
103 253 259 337 343 0
-17 -23 -101 -107 -257 0
-17 -23 -101 -107 -263 0
-17 -23 -101 -107 -341 0
-17 -23 -101 -107 -347 0
-17 -23 -101 -257 -263 0
-17 -23 -101 -257 -341 0
-17 -23 -101 -257 -347 0
-17 -23 -101 -263 -341 0
-17 -23 -101 -263 -347 0
-17 -23 -101 -341 -347 0
-17 -23 -107 -257 -263 0
-17 -23 -107 -257 -341 0
-17 -23 -107 -257 -347 0
-17 -23 -107 -263 -341 0
-17 -23 -107 -263 -347 0
-17 -23 -107 -341 -347 0
-17 -23 -257 -263 -341 0
-17 -23 -257 -263 -347 0
-17 -23 -257 -341 -347 0
-17 -23 -263 -341 -347 0
-17 -101 -107 -257 -263 0
-17 -101 -107 -257 -341 0
-17 -101 -107 -257 -347 0
-17 -101 -107 -263 -341 0
-17 -101 -107 -263 -347 0
-17 -101 -107 -341 -347 0
-17 -101 -257 -263 -341 0
-17 -101 -257 -263 -347 0
-17 -101 -257 -341 -347 0
-17 -101 -263 -341 -347 0
-17 -107 -257 -263 -341 0
-17 -107 -257 -263 -347 0
-17 -107 -257 -341 -347 0
-17 -107 -263 -341 -347 0
-17 -257 -263 -341 -347 0
-23 -101 -107 -257 -263 0
-23 -101 -107 -257 -341 0
-23 -101 -107 -257 -347 0
-23 -101 -107 -263 -341 0
-23 -101 -107 -263 -347 0
-23 -101 -107 -341 -347 0
-23 -101 -257 -263 -341 0
-23 -101 -257 -263 -347 0
-23 -101 -257 -341 -347 0
-23 -101 -263 -341 -347 0
-23 -107 -257 -263 -341 0
-23 -107 -257 -263 -347 0
-23 -107 -257 -341 -347 0
-23 -107 -263 -341 -347 0
-23 -257 -263 -341 -347 0
-101 -107 -257 -263 -341 0
-101 -107 -257 -263 -347 0
-101 -107 -257 -341 -347 0
-101 -107 -263 -341 -347 0
-101 -257 -263 -341 -347 0
-107 -257 -263 -341 -347 0
17 23 101 107 257 0
17 23 101 107 263 0
17 23 101 107 341 0
17 23 101 107 347 0
17 23 101 257 263 0
17 23 101 257 341 0
17 23 101 257 347 0
17 23 101 263 341 0
17 23 101 263 347 0
17 23 101 341 347 0
17 23 107 257 263 0
17 23 107 257 341 0
17 23 107 257 347 0
17 23 107 263 341 0
17 23 107 263 347 0
17 23 107 341 347 0
17 23 257 263 341 0
17 23 257 263 347 0
17 23 257 341 347 0
17 23 263 341 347 0
17 101 107 257 263 0
17 101 107 257 341 0
17 101 107 257 347 0
17 101 107 263 341 0
17 101 107 263 347 0
17 101 107 341 347 0
17 101 257 263 341 0
17 101 257 263 347 0
17 101 257 341 347 0
17 101 263 341 347 0
17 107 257 263 341 0
17 107 257 263 347 0
17 107 257 341 347 0
17 107 263 341 347 0
17 257 263 341 347 0
23 101 107 257 263 0
23 101 107 257 341 0
23 101 107 257 347 0
23 101 107 263 341 0
23 101 107 263 347 0
23 101 107 341 347 0
23 101 257 263 341 0
23 101 257 263 347 0
23 101 257 341 347 0
23 101 263 341 347 0
23 107 257 263 341 0
23 107 257 263 347 0
23 107 257 341 347 0
23 107 263 341 347 0
23 257 263 341 347 0
101 107 257 263 341 0
101 107 257 263 347 0
101 107 257 341 347 0
101 107 263 341 347 0
101 257 263 341 347 0
107 257 263 341 347 0
-394 -409 -604 0
-394 -409 -619 0
-394 -409 -994 0
-394 -409 -1009 0
-394 -409 -1204 0
-394 -409 -1219 0
-394 -604 -619 0
-394 -604 -994 0
-394 -604 -1009 0
-394 -604 -1204 0
-394 -604 -1219 0
-394 -619 -994 0
-394 -619 -1009 0
-394 -619 -1204 0
-394 -619 -1219 0
-394 -994 -1009 0
-394 -994 -1204 0
-394 -994 -1219 0
-394 -1009 -1204 0
-394 -1009 -1219 0
-394 -1204 -1219 0
-409 -604 -619 0
-409 -604 -994 0
-409 -604 -1009 0
-409 -604 -1204 0
-409 -604 -1219 0
-409 -619 -994 0
-409 -619 -1009 0
-409 -619 -1204 0
-409 -619 -1219 0
-409 -994 -1009 0
-409 -994 -1204 0
-409 -994 -1219 0
-409 -1009 -1204 0
-409 -1009 -1219 0
-409 -1204 -1219 0
-604 -619 -994 0
-604 -619 -1009 0
-604 -619 -1204 0
-604 -619 -1219 0
-604 -994 -1009 0
-604 -994 -1204 0
-604 -994 -1219 0
-604 -1009 -1204 0
-604 -1009 -1219 0
-604 -1204 -1219 0
-619 -994 -1009 0
-619 -994 -1204 0
-619 -994 -1219 0
-619 -1009 -1204 0
-619 -1009 -1219 0
-619 -1204 -1219 0
-994 -1009 -1204 0
-994 -1009 -1219 0
-994 -1204 -1219 0
-1009 -1204 -1219 0
394 409 604 619 994 1009 1204 0
394 409 604 619 994 1009 1219 0
394 409 604 619 994 1204 1219 0
394 409 604 619 1009 1204 1219 0
394 409 604 994 1009 1204 1219 0
394 409 619 994 1009 1204 1219 0
394 604 619 994 1009 1204 1219 0
409 604 619 994 1009 1204 1219 0
-25 -31 -133 -139 -265 0
-25 -31 -133 -139 -271 0
-25 -31 -133 -139 -289 0
-25 -31 -133 -139 -295 0
-25 -31 -133 -265 -271 0
-25 -31 -133 -265 -289 0
-25 -31 -133 -265 -295 0
-25 -31 -133 -271 -289 0
-25 -31 -133 -271 -295 0
-25 -31 -133 -289 -295 0
-25 -31 -139 -265 -271 0
-25 -31 -139 -265 -289 0
-25 -31 -139 -265 -295 0
-25 -31 -139 -271 -289 0
-25 -31 -139 -271 -295 0
-25 -31 -139 -289 -295 0
-25 -31 -265 -271 -289 0
-25 -31 -265 -271 -295 0
-25 -31 -265 -289 -295 0
-25 -31 -271 -289 -295 0
-25 -133 -139 -265 -271 0
-25 -133 -139 -265 -289 0
-25 -133 -139 -265 -295 0
-25 -133 -139 -271 -289 0
-25 -133 -139 -271 -295 0
-25 -133 -139 -289 -295 0
-25 -133 -265 -271 -289 0
-25 -133 -265 -271 -295 0
-25 -133 -265 -289 -295 0
-25 -133 -271 -289 -295 0
-25 -139 -265 -271 -289 0
-25 -139 -265 -271 -295 0
-25 -139 -265 -289 -295 0
-25 -139 -271 -289 -295 0
-25 -265 -271 -289 -295 0
-31 -133 -139 -265 -271 0
-31 -133 -139 -265 -289 0
-31 -133 -139 -265 -295 0
-31 -133 -139 -271 -289 0
-31 -133 -139 -271 -295 0
-31 -133 -139 -289 -295 0
-31 -133 -265 -271 -289 0
-31 -133 -265 -271 -295 0
-31 -133 -265 -289 -295 0
-31 -133 -271 -289 -295 0
-31 -139 -265 -271 -289 0
-31 -139 -265 -271 -295 0
-31 -139 -265 -289 -295 0
-31 -139 -271 -289 -295 0
-31 -265 -271 -289 -295 0
-133 -139 -265 -271 -289 0
-133 -139 -265 -271 -295 0
-133 -139 -265 -289 -295 0
-133 -139 -271 -289 -295 0
-133 -265 -271 -289 -295 0
-139 -265 -271 -289 -295 0
25 31 133 139 265 0
25 31 133 139 271 0
25 31 133 139 289 0
25 31 133 139 295 0
25 31 133 265 271 0
25 31 133 265 289 0
25 31 133 265 295 0
25 31 133 271 289 0
25 31 133 271 295 0
25 31 133 289 295 0
25 31 139 265 271 0
25 31 139 265 289 0
25 31 139 265 295 0
25 31 139 271 289 0
25 31 139 271 295 0
25 31 139 289 295 0
25 31 265 271 289 0
25 31 265 271 295 0
25 31 265 289 295 0
25 31 271 289 295 0
25 133 139 265 271 0
25 133 139 265 289 0
25 133 139 265 295 0
25 133 139 271 289 0
25 133 139 271 295 0
25 133 139 289 295 0
25 133 265 271 289 0
25 133 265 271 295 0
25 133 265 289 295 0
25 133 271 289 295 0
25 139 265 271 289 0
25 139 265 271 295 0
25 139 265 289 295 0
25 139 271 289 295 0
25 265 271 289 295 0
31 133 139 265 271 0
31 133 139 265 289 0
31 133 139 265 295 0
31 133 139 271 289 0
31 133 139 271 295 0
31 133 139 289 295 0
31 133 265 271 289 0
31 133 265 271 295 0
31 133 265 289 295 0
31 133 271 289 295 0
31 139 265 271 289 0
31 139 265 271 295 0
31 139 265 289 295 0
31 139 271 289 295 0
31 265 271 289 295 0
133 139 265 271 289 0
133 139 265 271 295 0
133 139 265 289 295 0
133 139 271 289 295 0
133 265 271 289 295 0
139 265 271 289 295 0
-29 -35 -137 -143 -269 0
-29 -35 -137 -143 -275 0
-29 -35 -137 -143 -293 0
-29 -35 -137 -143 -299 0
-29 -35 -137 -269 -275 0
-29 -35 -137 -269 -293 0
-29 -35 -137 -269 -299 0
-29 -35 -137 -275 -293 0
-29 -35 -137 -275 -299 0
-29 -35 -137 -293 -299 0
-29 -35 -143 -269 -275 0
-29 -35 -143 -269 -293 0
-29 -35 -143 -269 -299 0
-29 -35 -143 -275 -293 0
-29 -35 -143 -275 -299 0
-29 -35 -143 -293 -299 0
-29 -35 -269 -275 -293 0
-29 -35 -269 -275 -299 0
-29 -35 -269 -293 -299 0
-29 -35 -275 -293 -299 0
-29 -137 -143 -269 -275 0
-29 -137 -143 -269 -293 0
-29 -137 -143 -269 -299 0
-29 -137 -143 -275 -293 0
-29 -137 -143 -275 -299 0
-29 -137 -143 -293 -299 0
-29 -137 -269 -275 -293 0
-29 -137 -269 -275 -299 0
-29 -137 -269 -293 -299 0
-29 -137 -275 -293 -299 0
-29 -143 -269 -275 -293 0
-29 -143 -269 -275 -299 0
-29 -143 -269 -293 -299 0
-29 -143 -275 -293 -299 0
-29 -269 -275 -293 -299 0
-35 -137 -143 -269 -275 0
-35 -137 -143 -269 -293 0
-35 -137 -143 -269 -299 0
-35 -137 -143 -275 -293 0
-35 -137 -143 -275 -299 0
-35 -137 -143 -293 -299 0
-35 -137 -269 -275 -293 0
-35 -137 -269 -275 -299 0
-35 -137 -269 -293 -299 0
-35 -137 -275 -293 -299 0
-35 -143 -269 -275 -293 0
-35 -143 -269 -275 -299 0
-35 -143 -269 -293 -299 0
-35 -143 -275 -293 -299 0
-35 -269 -275 -293 -299 0
-137 -143 -269 -275 -293 0
-137 -143 -269 -275 -299 0
-137 -143 -269 -293 -299 0
-137 -143 -275 -293 -299 0
-137 -269 -275 -293 -299 0
-143 -269 -275 -293 -299 0
29 35 137 143 269 0
29 35 137 143 275 0
29 35 137 143 293 0
29 35 137 143 299 0
29 35 137 269 275 0
29 35 137 269 293 0
29 35 137 269 299 0
29 35 137 275 293 0
29 35 137 275 299 0
29 35 137 293 299 0
29 35 143 269 275 0
29 35 143 269 293 0
29 35 143 269 299 0
29 35 143 275 293 0
29 35 143 275 299 0
29 35 143 293 299 0
29 35 269 275 293 0
29 35 269 275 299 0
29 35 269 293 299 0
29 35 275 293 299 0
29 137 143 269 275 0
29 137 143 269 293 0
29 137 143 269 299 0
29 137 143 275 293 0
29 137 143 275 299 0
29 137 143 293 299 0
29 137 269 275 293 0
29 137 269 275 299 0
29 137 269 293 299 0
29 137 275 293 299 0
29 143 269 275 293 0
29 143 269 275 299 0
29 143 269 293 299 0
29 143 275 293 299 0
29 269 275 293 299 0
35 137 143 269 275 0
35 137 143 269 293 0
35 137 143 269 299 0
35 137 143 275 293 0
35 137 143 275 299 0
35 137 143 293 299 0
35 137 269 275 293 0
35 137 269 275 299 0
35 137 269 293 299 0
35 137 275 293 299 0
35 143 269 275 293 0
35 143 269 275 299 0
35 143 269 293 299 0
35 143 275 293 299 0
35 269 275 293 299 0
137 143 269 275 293 0
137 143 269 275 299 0
137 143 269 293 299 0
137 143 275 293 299 0
137 269 275 293 299 0
143 269 275 293 299 0
-424 -439 -694 0
-424 -439 -709 0
-424 -439 -1024 0
-424 -439 -1039 0
-424 -439 -1084 0
-424 -439 -1099 0
-424 -694 -709 0
-424 -694 -1024 0
-424 -694 -1039 0
-424 -694 -1084 0
-424 -694 -1099 0
-424 -709 -1024 0
-424 -709 -1039 0
-424 -709 -1084 0
-424 -709 -1099 0
-424 -1024 -1039 0
-424 -1024 -1084 0
-424 -1024 -1099 0
-424 -1039 -1084 0
-424 -1039 -1099 0
-424 -1084 -1099 0
-439 -694 -709 0
-439 -694 -1024 0
-439 -694 -1039 0
-439 -694 -1084 0
-439 -694 -1099 0
-439 -709 -1024 0
-439 -709 -1039 0
-439 -709 -1084 0
-439 -709 -1099 0
-439 -1024 -1039 0
-439 -1024 -1084 0
-439 -1024 -1099 0
-439 -1039 -1084 0
-439 -1039 -1099 0
-439 -1084 -1099 0
-694 -709 -1024 0
-694 -709 -1039 0
-694 -709 -1084 0
-694 -709 -1099 0
-694 -1024 -1039 0
-694 -1024 -1084 0
-694 -1024 -1099 0
-694 -1039 -1084 0
-694 -1039 -1099 0
-694 -1084 -1099 0
-709 -1024 -1039 0
-709 -1024 -1084 0
-709 -1024 -1099 0
-709 -1039 -1084 0
-709 -1039 -1099 0
-709 -1084 -1099 0
-1024 -1039 -1084 0
-1024 -1039 -1099 0
-1024 -1084 -1099 0
-1039 -1084 -1099 0
424 439 694 709 1024 1039 1084 0
424 439 694 709 1024 1039 1099 0
424 439 694 709 1024 1084 1099 0
424 439 694 709 1039 1084 1099 0
424 439 694 1024 1039 1084 1099 0
424 439 709 1024 1039 1084 1099 0
424 694 709 1024 1039 1084 1099 0
439 694 709 1024 1039 1084 1099 0
-157 -163 -193 0
-157 -163 -199 0
-157 -193 -199 0
-163 -193 -199 0
157 163 193 0
157 163 199 0
157 193 199 0
163 193 199 0
-161 -167 -197 0
-161 -167 -203 0
-161 -197 -203 0
-167 -197 -203 0
161 167 197 0
161 167 203 0
161 197 203 0
167 197 203 0
-754 -769 0
-754 -844 0
-754 -859 0
-769 -844 0
-769 -859 0
-844 -859 0
754 769 844 859 0
-37 -43 -73 -79 -229 0
-37 -43 -73 -79 -235 0
-37 -43 -73 -79 -349 0
-37 -43 -73 -79 -355 0
-37 -43 -73 -229 -235 0
-37 -43 -73 -229 -349 0
-37 -43 -73 -229 -355 0
-37 -43 -73 -235 -349 0
-37 -43 -73 -235 -355 0
-37 -43 -73 -349 -355 0
-37 -43 -79 -229 -235 0
-37 -43 -79 -229 -349 0
-37 -43 -79 -229 -355 0
-37 -43 -79 -235 -349 0
-37 -43 -79 -235 -355 0
-37 -43 -79 -349 -355 0
-37 -43 -229 -235 -349 0
-37 -43 -229 -235 -355 0
-37 -43 -229 -349 -355 0
-37 -43 -235 -349 -355 0
-37 -73 -79 -229 -235 0
-37 -73 -79 -229 -349 0
-37 -73 -79 -229 -355 0
-37 -73 -79 -235 -349 0
-37 -73 -79 -235 -355 0
-37 -73 -79 -349 -355 0
-37 -73 -229 -235 -349 0
-37 -73 -229 -235 -355 0
-37 -73 -229 -349 -355 0
-37 -73 -235 -349 -355 0
-37 -79 -229 -235 -349 0
-37 -79 -229 -235 -355 0
-37 -79 -229 -349 -355 0
-37 -79 -235 -349 -355 0
-37 -229 -235 -349 -355 0
-43 -73 -79 -229 -235 0
-43 -73 -79 -229 -349 0
-43 -73 -79 -229 -355 0
-43 -73 -79 -235 -349 0
-43 -73 -79 -235 -355 0
-43 -73 -79 -349 -355 0
-43 -73 -229 -235 -349 0
-43 -73 -229 -235 -355 0
-43 -73 -229 -349 -355 0
-43 -73 -235 -349 -355 0
-43 -79 -229 -235 -349 0
-43 -79 -229 -235 -355 0
-43 -79 -229 -349 -355 0
-43 -79 -235 -349 -355 0
-43 -229 -235 -349 -355 0
-73 -79 -229 -235 -349 0
-73 -79 -229 -235 -355 0
-73 -79 -229 -349 -355 0
-73 -79 -235 -349 -355 0
-73 -229 -235 -349 -355 0
-79 -229 -235 -349 -355 0
37 43 73 79 229 0
37 43 73 79 235 0
37 43 73 79 349 0
37 43 73 79 355 0
37 43 73 229 235 0
37 43 73 229 349 0
37 43 73 229 355 0
37 43 73 235 349 0
37 43 73 235 355 0
37 43 73 349 355 0
37 43 79 229 235 0
37 43 79 229 349 0
37 43 79 229 355 0
37 43 79 235 349 0
37 43 79 235 355 0
37 43 79 349 355 0
37 43 229 235 349 0
37 43 229 235 355 0
37 43 229 349 355 0
37 43 235 349 355 0
37 73 79 229 235 0
37 73 79 229 349 0
37 73 79 229 355 0
37 73 79 235 349 0
37 73 79 235 355 0
37 73 79 349 355 0
37 73 229 235 349 0
37 73 229 235 355 0
37 73 229 349 355 0
37 73 235 349 355 0
37 79 229 235 349 0
37 79 229 235 355 0
37 79 229 349 355 0
37 79 235 349 355 0
37 229 235 349 355 0
43 73 79 229 235 0
43 73 79 229 349 0
43 73 79 229 355 0
43 73 79 235 349 0
43 73 79 235 355 0
43 73 79 349 355 0
43 73 229 235 349 0
43 73 229 235 355 0
43 73 229 349 355 0
43 73 235 349 355 0
43 79 229 235 349 0
43 79 229 235 355 0
43 79 229 349 355 0
43 79 235 349 355 0
43 229 235 349 355 0
73 79 229 235 349 0
73 79 229 235 355 0
73 79 229 349 355 0
73 79 235 349 355 0
73 229 235 349 355 0
79 229 235 349 355 0
-41 -47 -77 -83 -233 0
-41 -47 -77 -83 -239 0
-41 -47 -77 -83 -353 0
-41 -47 -77 -83 -359 0
-41 -47 -77 -233 -239 0
-41 -47 -77 -233 -353 0
-41 -47 -77 -233 -359 0
-41 -47 -77 -239 -353 0
-41 -47 -77 -239 -359 0
-41 -47 -77 -353 -359 0
-41 -47 -83 -233 -239 0
-41 -47 -83 -233 -353 0
-41 -47 -83 -233 -359 0
-41 -47 -83 -239 -353 0
-41 -47 -83 -239 -359 0
-41 -47 -83 -353 -359 0
-41 -47 -233 -239 -353 0
-41 -47 -233 -239 -359 0
-41 -47 -233 -353 -359 0
-41 -47 -239 -353 -359 0
-41 -77 -83 -233 -239 0
-41 -77 -83 -233 -353 0
-41 -77 -83 -233 -359 0
-41 -77 -83 -239 -353 0
-41 -77 -83 -239 -359 0
-41 -77 -83 -353 -359 0
-41 -77 -233 -239 -353 0
-41 -77 -233 -239 -359 0
-41 -77 -233 -353 -359 0
-41 -77 -239 -353 -359 0
-41 -83 -233 -239 -353 0
-41 -83 -233 -239 -359 0
-41 -83 -233 -353 -359 0
-41 -83 -239 -353 -359 0
-41 -233 -239 -353 -359 0
-47 -77 -83 -233 -239 0
-47 -77 -83 -233 -353 0
-47 -77 -83 -233 -359 0
-47 -77 -83 -239 -353 0
-47 -77 -83 -239 -359 0
-47 -77 -83 -353 -359 0
-47 -77 -233 -239 -353 0
-47 -77 -233 -239 -359 0
-47 -77 -233 -353 -359 0
-47 -77 -239 -353 -359 0
-47 -83 -233 -239 -353 0
-47 -83 -233 -239 -359 0
-47 -83 -233 -353 -359 0
-47 -83 -239 -353 -359 0
-47 -233 -239 -353 -359 0
-77 -83 -233 -239 -353 0
-77 -83 -233 -239 -359 0
-77 -83 -233 -353 -359 0
-77 -83 -239 -353 -359 0
-77 -233 -239 -353 -359 0
-83 -233 -239 -353 -359 0
41 47 77 83 233 0
41 47 77 83 239 0
41 47 77 83 353 0
41 47 77 83 359 0
41 47 77 233 239 0
41 47 77 233 353 0
41 47 77 233 359 0
41 47 77 239 353 0
41 47 77 239 359 0
41 47 77 353 359 0
41 47 83 233 239 0
41 47 83 233 353 0
41 47 83 233 359 0
41 47 83 239 353 0
41 47 83 239 359 0
41 47 83 353 359 0
41 47 233 239 353 0
41 47 233 239 359 0
41 47 233 353 359 0
41 47 239 353 359 0
41 77 83 233 239 0
41 77 83 233 353 0
41 77 83 233 359 0
41 77 83 239 353 0
41 77 83 239 359 0
41 77 83 353 359 0
41 77 233 239 353 0
41 77 233 239 359 0
41 77 233 353 359 0
41 77 239 353 359 0
41 83 233 239 353 0
41 83 233 239 359 0
41 83 233 353 359 0
41 83 239 353 359 0
41 233 239 353 359 0
47 77 83 233 239 0
47 77 83 233 353 0
47 77 83 233 359 0
47 77 83 239 353 0
47 77 83 239 359 0
47 77 83 353 359 0
47 77 233 239 353 0
47 77 233 239 359 0
47 77 233 353 359 0
47 77 239 353 359 0
47 83 233 239 353 0
47 83 233 239 359 0
47 83 233 353 359 0
47 83 239 353 359 0
47 233 239 353 359 0
77 83 233 239 353 0
77 83 233 239 359 0
77 83 233 353 359 0
77 83 239 353 359 0
77 233 239 353 359 0
83 233 239 353 359 0
-454 -469 -544 0
-454 -469 -559 0
-454 -469 -934 0
-454 -469 -949 0
-454 -469 -1234 0
-454 -469 -1249 0
-454 -544 -559 0
-454 -544 -934 0
-454 -544 -949 0
-454 -544 -1234 0
-454 -544 -1249 0
-454 -559 -934 0
-454 -559 -949 0
-454 -559 -1234 0
-454 -559 -1249 0
-454 -934 -949 0
-454 -934 -1234 0
-454 -934 -1249 0
-454 -949 -1234 0
-454 -949 -1249 0
-454 -1234 -1249 0
-469 -544 -559 0
-469 -544 -934 0
-469 -544 -949 0
-469 -544 -1234 0
-469 -544 -1249 0
-469 -559 -934 0
-469 -559 -949 0
-469 -559 -1234 0
-469 -559 -1249 0
-469 -934 -949 0
-469 -934 -1234 0
-469 -934 -1249 0
-469 -949 -1234 0
-469 -949 -1249 0
-469 -1234 -1249 0
-544 -559 -934 0
-544 -559 -949 0
-544 -559 -1234 0
-544 -559 -1249 0
-544 -934 -949 0
-544 -934 -1234 0
-544 -934 -1249 0
-544 -949 -1234 0
-544 -949 -1249 0
-544 -1234 -1249 0
-559 -934 -949 0
-559 -934 -1234 0
-559 -934 -1249 0
-559 -949 -1234 0
-559 -949 -1249 0
-559 -1234 -1249 0
-934 -949 -1234 0
-934 -949 -1249 0
-934 -1234 -1249 0
-949 -1234 -1249 0
454 469 544 559 934 949 1234 0
454 469 544 559 934 949 1249 0
454 469 544 559 934 1234 1249 0
454 469 544 559 949 1234 1249 0
454 469 544 934 949 1234 1249 0
454 469 559 934 949 1234 1249 0
454 544 559 934 949 1234 1249 0
469 544 559 934 949 1234 1249 0
-49 -55 -109 -115 -241 0
-49 -55 -109 -115 -247 0
-49 -55 -109 -115 -301 0
-49 -55 -109 -115 -307 0
-49 -55 -109 -241 -247 0
-49 -55 -109 -241 -301 0
-49 -55 -109 -241 -307 0
-49 -55 -109 -247 -301 0
-49 -55 -109 -247 -307 0
-49 -55 -109 -301 -307 0
-49 -55 -115 -241 -247 0
-49 -55 -115 -241 -301 0
-49 -55 -115 -241 -307 0
-49 -55 -115 -247 -301 0
-49 -55 -115 -247 -307 0
-49 -55 -115 -301 -307 0
-49 -55 -241 -247 -301 0
-49 -55 -241 -247 -307 0
-49 -55 -241 -301 -307 0
-49 -55 -247 -301 -307 0
-49 -109 -115 -241 -247 0
-49 -109 -115 -241 -301 0
-49 -109 -115 -241 -307 0
-49 -109 -115 -247 -301 0
-49 -109 -115 -247 -307 0
-49 -109 -115 -301 -307 0
-49 -109 -241 -247 -301 0
-49 -109 -241 -247 -307 0
-49 -109 -241 -301 -307 0
-49 -109 -247 -301 -307 0
-49 -115 -241 -247 -301 0
-49 -115 -241 -247 -307 0
-49 -115 -241 -301 -307 0
-49 -115 -247 -301 -307 0
-49 -241 -247 -301 -307 0
-55 -109 -115 -241 -247 0
-55 -109 -115 -241 -301 0
-55 -109 -115 -241 -307 0
-55 -109 -115 -247 -301 0
-55 -109 -115 -247 -307 0
-55 -109 -115 -301 -307 0
-55 -109 -241 -247 -301 0
-55 -109 -241 -247 -307 0
-55 -109 -241 -301 -307 0
-55 -109 -247 -301 -307 0
-55 -115 -241 -247 -301 0
-55 -115 -241 -247 -307 0
-55 -115 -241 -301 -307 0
-55 -115 -247 -301 -307 0
-55 -241 -247 -301 -307 0
-109 -115 -241 -247 -301 0
-109 -115 -241 -247 -307 0
-109 -115 -241 -301 -307 0
-109 -115 -247 -301 -307 0
-109 -241 -247 -301 -307 0
-115 -241 -247 -301 -307 0
49 55 109 115 241 0
49 55 109 115 247 0
49 55 109 115 301 0
49 55 109 115 307 0
49 55 109 241 247 0
49 55 109 241 301 0
49 55 109 241 307 0
49 55 109 247 301 0
49 55 109 247 307 0
49 55 109 301 307 0
49 55 115 241 247 0
49 55 115 241 301 0
49 55 115 241 307 0
49 55 115 247 301 0
49 55 115 247 307 0
49 55 115 301 307 0
49 55 241 247 301 0
49 55 241 247 307 0
49 55 241 301 307 0
49 55 247 301 307 0
49 109 115 241 247 0
49 109 115 241 301 0
49 109 115 241 307 0
49 109 115 247 301 0
49 109 115 247 307 0
49 109 115 301 307 0
49 109 241 247 301 0
49 109 241 247 307 0
49 109 241 301 307 0
49 109 247 301 307 0
49 115 241 247 301 0
49 115 241 247 307 0
49 115 241 301 307 0
49 115 247 301 307 0
49 241 247 301 307 0
55 109 115 241 247 0
55 109 115 241 301 0
55 109 115 241 307 0
55 109 115 247 301 0
55 109 115 247 307 0
55 109 115 301 307 0
55 109 241 247 301 0
55 109 241 247 307 0
55 109 241 301 307 0
55 109 247 301 307 0
55 115 241 247 301 0
55 115 241 247 307 0
55 115 241 301 307 0
55 115 247 301 307 0
55 241 247 301 307 0
109 115 241 247 301 0
109 115 241 247 307 0
109 115 241 301 307 0
109 115 247 301 307 0
109 241 247 301 307 0
115 241 247 301 307 0
-53 -59 -113 -119 -245 0
-53 -59 -113 -119 -251 0
-53 -59 -113 -119 -305 0
-53 -59 -113 -119 -311 0
-53 -59 -113 -245 -251 0
-53 -59 -113 -245 -305 0
-53 -59 -113 -245 -311 0
-53 -59 -113 -251 -305 0
-53 -59 -113 -251 -311 0
-53 -59 -113 -305 -311 0
-53 -59 -119 -245 -251 0
-53 -59 -119 -245 -305 0
-53 -59 -119 -245 -311 0
-53 -59 -119 -251 -305 0
-53 -59 -119 -251 -311 0
-53 -59 -119 -305 -311 0
-53 -59 -245 -251 -305 0
-53 -59 -245 -251 -311 0
-53 -59 -245 -305 -311 0
-53 -59 -251 -305 -311 0
-53 -113 -119 -245 -251 0
-53 -113 -119 -245 -305 0
-53 -113 -119 -245 -311 0
-53 -113 -119 -251 -305 0
-53 -113 -119 -251 -311 0
-53 -113 -119 -305 -311 0
-53 -113 -245 -251 -305 0
-53 -113 -245 -251 -311 0
-53 -113 -245 -305 -311 0
-53 -113 -251 -305 -311 0
-53 -119 -245 -251 -305 0
-53 -119 -245 -251 -311 0
-53 -119 -245 -305 -311 0
-53 -119 -251 -305 -311 0
-53 -245 -251 -305 -311 0
-59 -113 -119 -245 -251 0
-59 -113 -119 -245 -305 0
-59 -113 -119 -245 -311 0
-59 -113 -119 -251 -305 0
-59 -113 -119 -251 -311 0
-59 -113 -119 -305 -311 0
-59 -113 -245 -251 -305 0
-59 -113 -245 -251 -311 0
-59 -113 -245 -305 -311 0
-59 -113 -251 -305 -311 0
-59 -119 -245 -251 -305 0
-59 -119 -245 -251 -311 0
-59 -119 -245 -305 -311 0
-59 -119 -251 -305 -311 0
-59 -245 -251 -305 -311 0
-113 -119 -245 -251 -305 0
-113 -119 -245 -251 -311 0
-113 -119 -245 -305 -311 0
-113 -119 -251 -305 -311 0
-113 -245 -251 -305 -311 0
-119 -245 -251 -305 -311 0
53 59 113 119 245 0
53 59 113 119 251 0
53 59 113 119 305 0
53 59 113 119 311 0
53 59 113 245 251 0
53 59 113 245 305 0
53 59 113 245 311 0
53 59 113 251 305 0
53 59 113 251 311 0
53 59 113 305 311 0
53 59 119 245 251 0
53 59 119 245 305 0
53 59 119 245 311 0
53 59 119 251 305 0
53 59 119 251 311 0
53 59 119 305 311 0
53 59 245 251 305 0
53 59 245 251 311 0
53 59 245 305 311 0
53 59 251 305 311 0
53 113 119 245 251 0
53 113 119 245 305 0
53 113 119 245 311 0
53 113 119 251 305 0
53 113 119 251 311 0
53 113 119 305 311 0
53 113 245 251 305 0
53 113 245 251 311 0
53 113 245 305 311 0
53 113 251 305 311 0
53 119 245 251 305 0
53 119 245 251 311 0
53 119 245 305 311 0
53 119 251 305 311 0
53 245 251 305 311 0
59 113 119 245 251 0
59 113 119 245 305 0
59 113 119 245 311 0
59 113 119 251 305 0
59 113 119 251 311 0
59 113 119 305 311 0
59 113 245 251 305 0
59 113 245 251 311 0
59 113 245 305 311 0
59 113 251 305 311 0
59 119 245 251 305 0
59 119 245 251 311 0
59 119 245 305 311 0
59 119 251 305 311 0
59 245 251 305 311 0
113 119 245 251 305 0
113 119 245 251 311 0
113 119 245 305 311 0
113 119 251 305 311 0
113 245 251 305 311 0
119 245 251 305 311 0
-484 -499 -634 0
-484 -499 -649 0
-484 -499 -964 0
-484 -499 -979 0
-484 -499 -1114 0
-484 -499 -1129 0
-484 -634 -649 0
-484 -634 -964 0
-484 -634 -979 0
-484 -634 -1114 0
-484 -634 -1129 0
-484 -649 -964 0
-484 -649 -979 0
-484 -649 -1114 0
-484 -649 -1129 0
-484 -964 -979 0
-484 -964 -1114 0
-484 -964 -1129 0
-484 -979 -1114 0
-484 -979 -1129 0
-484 -1114 -1129 0
-499 -634 -649 0
-499 -634 -964 0
-499 -634 -979 0
-499 -634 -1114 0
-499 -634 -1129 0
-499 -649 -964 0
-499 -649 -979 0
-499 -649 -1114 0
-499 -649 -1129 0
-499 -964 -979 0
-499 -964 -1114 0
-499 -964 -1129 0
-499 -979 -1114 0
-499 -979 -1129 0
-499 -1114 -1129 0
-634 -649 -964 0
-634 -649 -979 0
-634 -649 -1114 0
-634 -649 -1129 0
-634 -964 -979 0
-634 -964 -1114 0
-634 -964 -1129 0
-634 -979 -1114 0
-634 -979 -1129 0
-634 -1114 -1129 0
-649 -964 -979 0
-649 -964 -1114 0
-649 -964 -1129 0
-649 -979 -1114 0
-649 -979 -1129 0
-649 -1114 -1129 0
-964 -979 -1114 0
-964 -979 -1129 0
-964 -1114 -1129 0
-979 -1114 -1129 0
484 499 634 649 964 979 1114 0
484 499 634 649 964 979 1129 0
484 499 634 649 964 1114 1129 0
484 499 634 649 979 1114 1129 0
484 499 634 964 979 1114 1129 0
484 499 649 964 979 1114 1129 0
484 634 649 964 979 1114 1129 0
499 634 649 964 979 1114 1129 0
-61 -67 -85 -91 -217 0
-61 -67 -85 -91 -223 0
-61 -67 -85 -91 -325 0
-61 -67 -85 -91 -331 0
-61 -67 -85 -217 -223 0
-61 -67 -85 -217 -325 0
-61 -67 -85 -217 -331 0
-61 -67 -85 -223 -325 0
-61 -67 -85 -223 -331 0
-61 -67 -85 -325 -331 0
-61 -67 -91 -217 -223 0
-61 -67 -91 -217 -325 0
-61 -67 -91 -217 -331 0
-61 -67 -91 -223 -325 0
-61 -67 -91 -223 -331 0
-61 -67 -91 -325 -331 0
-61 -67 -217 -223 -325 0
-61 -67 -217 -223 -331 0
-61 -67 -217 -325 -331 0
-61 -67 -223 -325 -331 0
-61 -85 -91 -217 -223 0
-61 -85 -91 -217 -325 0
-61 -85 -91 -217 -331 0
-61 -85 -91 -223 -325 0
-61 -85 -91 -223 -331 0
-61 -85 -91 -325 -331 0
-61 -85 -217 -223 -325 0
-61 -85 -217 -223 -331 0
-61 -85 -217 -325 -331 0
-61 -85 -223 -325 -331 0
-61 -91 -217 -223 -325 0
-61 -91 -217 -223 -331 0
-61 -91 -217 -325 -331 0
-61 -91 -223 -325 -331 0
-61 -217 -223 -325 -331 0
-67 -85 -91 -217 -223 0
-67 -85 -91 -217 -325 0
-67 -85 -91 -217 -331 0
-67 -85 -91 -223 -325 0
-67 -85 -91 -223 -331 0
-67 -85 -91 -325 -331 0
-67 -85 -217 -223 -325 0
-67 -85 -217 -223 -331 0
-67 -85 -217 -325 -331 0
-67 -85 -223 -325 -331 0
-67 -91 -217 -223 -325 0
-67 -91 -217 -223 -331 0
-67 -91 -217 -325 -331 0
-67 -91 -223 -325 -331 0
-67 -217 -223 -325 -331 0
-85 -91 -217 -223 -325 0
-85 -91 -217 -223 -331 0
-85 -91 -217 -325 -331 0
-85 -91 -223 -325 -331 0
-85 -217 -223 -325 -331 0
-91 -217 -223 -325 -331 0
61 67 85 91 217 0
61 67 85 91 223 0
61 67 85 91 325 0
61 67 85 91 331 0
61 67 85 217 223 0
61 67 85 217 325 0
61 67 85 217 331 0
61 67 85 223 325 0
61 67 85 223 331 0
61 67 85 325 331 0
61 67 91 217 223 0
61 67 91 217 325 0
61 67 91 217 331 0
61 67 91 223 325 0
61 67 91 223 331 0
61 67 91 325 331 0
61 67 217 223 325 0
61 67 217 223 331 0
61 67 217 325 331 0
61 67 223 325 331 0
61 85 91 217 223 0
61 85 91 217 325 0
61 85 91 217 331 0
61 85 91 223 325 0
61 85 91 223 331 0
61 85 91 325 331 0
61 85 217 223 325 0
61 85 217 223 331 0
61 85 217 325 331 0
61 85 223 325 331 0
61 91 217 223 325 0
61 91 217 223 331 0
61 91 217 325 331 0
61 91 223 325 331 0
61 217 223 325 331 0
67 85 91 217 223 0
67 85 91 217 325 0
67 85 91 217 331 0
67 85 91 223 325 0
67 85 91 223 331 0
67 85 91 325 331 0
67 85 217 223 325 0
67 85 217 223 331 0
67 85 217 325 331 0
67 85 223 325 331 0
67 91 217 223 325 0
67 91 217 223 331 0
67 91 217 325 331 0
67 91 223 325 331 0
67 217 223 325 331 0
85 91 217 223 325 0
85 91 217 223 331 0
85 91 217 325 331 0
85 91 223 325 331 0
85 217 223 325 331 0
91 217 223 325 331 0
-65 -71 -89 -95 -221 0
-65 -71 -89 -95 -227 0
-65 -71 -89 -95 -329 0
-65 -71 -89 -95 -335 0
-65 -71 -89 -221 -227 0
-65 -71 -89 -221 -329 0
-65 -71 -89 -221 -335 0
-65 -71 -89 -227 -329 0
-65 -71 -89 -227 -335 0
-65 -71 -89 -329 -335 0
-65 -71 -95 -221 -227 0
-65 -71 -95 -221 -329 0
-65 -71 -95 -221 -335 0
-65 -71 -95 -227 -329 0
-65 -71 -95 -227 -335 0
-65 -71 -95 -329 -335 0
-65 -71 -221 -227 -329 0
-65 -71 -221 -227 -335 0
-65 -71 -221 -329 -335 0
-65 -71 -227 -329 -335 0
-65 -89 -95 -221 -227 0
-65 -89 -95 -221 -329 0
-65 -89 -95 -221 -335 0
-65 -89 -95 -227 -329 0
-65 -89 -95 -227 -335 0
-65 -89 -95 -329 -335 0
-65 -89 -221 -227 -329 0
-65 -89 -221 -227 -335 0
-65 -89 -221 -329 -335 0
-65 -89 -227 -329 -335 0
-65 -95 -221 -227 -329 0
-65 -95 -221 -227 -335 0
-65 -95 -221 -329 -335 0
-65 -95 -227 -329 -335 0
-65 -221 -227 -329 -335 0
-71 -89 -95 -221 -227 0
-71 -89 -95 -221 -329 0
-71 -89 -95 -221 -335 0
-71 -89 -95 -227 -329 0
-71 -89 -95 -227 -335 0
-71 -89 -95 -329 -335 0
-71 -89 -221 -227 -329 0
-71 -89 -221 -227 -335 0
-71 -89 -221 -329 -335 0
-71 -89 -227 -329 -335 0
-71 -95 -221 -227 -329 0
-71 -95 -221 -227 -335 0
-71 -95 -221 -329 -335 0
-71 -95 -227 -329 -335 0
-71 -221 -227 -329 -335 0
-89 -95 -221 -227 -329 0
-89 -95 -221 -227 -335 0
-89 -95 -221 -329 -335 0
-89 -95 -227 -329 -335 0
-89 -221 -227 -329 -335 0
-95 -221 -227 -329 -335 0
65 71 89 95 221 0
65 71 89 95 227 0
65 71 89 95 329 0
65 71 89 95 335 0
65 71 89 221 227 0
65 71 89 221 329 0
65 71 89 221 335 0
65 71 89 227 329 0
65 71 89 227 335 0
65 71 89 329 335 0
65 71 95 221 227 0
65 71 95 221 329 0
65 71 95 221 335 0
65 71 95 227 329 0
65 71 95 227 335 0
65 71 95 329 335 0
65 71 221 227 329 0
65 71 221 227 335 0
65 71 221 329 335 0
65 71 227 329 335 0
65 89 95 221 227 0
65 89 95 221 329 0
65 89 95 221 335 0
65 89 95 227 329 0
65 89 95 227 335 0
65 89 95 329 335 0
65 89 221 227 329 0
65 89 221 227 335 0
65 89 221 329 335 0
65 89 227 329 335 0
65 95 221 227 329 0
65 95 221 227 335 0
65 95 221 329 335 0
65 95 227 329 335 0
65 221 227 329 335 0
71 89 95 221 227 0
71 89 95 221 329 0
71 89 95 221 335 0
71 89 95 227 329 0
71 89 95 227 335 0
71 89 95 329 335 0
71 89 221 227 329 0
71 89 221 227 335 0
71 89 221 329 335 0
71 89 227 329 335 0
71 95 221 227 329 0
71 95 221 227 335 0
71 95 221 329 335 0
71 95 227 329 335 0
71 221 227 329 335 0
89 95 221 227 329 0
89 95 221 227 335 0
89 95 221 329 335 0
89 95 227 329 335 0
89 221 227 329 335 0
95 221 227 329 335 0
-514 -529 -574 0
-514 -529 -589 0
-514 -529 -904 0
-514 -529 -919 0
-514 -529 -1174 0
-514 -529 -1189 0
-514 -574 -589 0
-514 -574 -904 0
-514 -574 -919 0
-514 -574 -1174 0
-514 -574 -1189 0
-514 -589 -904 0
-514 -589 -919 0
-514 -589 -1174 0
-514 -589 -1189 0
-514 -904 -919 0
-514 -904 -1174 0
-514 -904 -1189 0
-514 -919 -1174 0
-514 -919 -1189 0
-514 -1174 -1189 0
-529 -574 -589 0
-529 -574 -904 0
-529 -574 -919 0
-529 -574 -1174 0
-529 -574 -1189 0
-529 -589 -904 0
-529 -589 -919 0
-529 -589 -1174 0
-529 -589 -1189 0
-529 -904 -919 0
-529 -904 -1174 0
-529 -904 -1189 0
-529 -919 -1174 0
-529 -919 -1189 0
-529 -1174 -1189 0
-574 -589 -904 0
-574 -589 -919 0
-574 -589 -1174 0
-574 -589 -1189 0
-574 -904 -919 0
-574 -904 -1174 0
-574 -904 -1189 0
-574 -919 -1174 0
-574 -919 -1189 0
-574 -1174 -1189 0
-589 -904 -919 0
-589 -904 -1174 0
-589 -904 -1189 0
-589 -919 -1174 0
-589 -919 -1189 0
-589 -1174 -1189 0
-904 -919 -1174 0
-904 -919 -1189 0
-904 -1174 -1189 0
-919 -1174 -1189 0
514 529 574 589 904 919 1174 0
514 529 574 589 904 919 1189 0
514 529 574 589 904 1174 1189 0
514 529 574 589 919 1174 1189 0
514 529 574 904 919 1174 1189 0
514 529 589 904 919 1174 1189 0
514 574 589 904 919 1174 1189 0
529 574 589 904 919 1174 1189 0
-145 -151 -169 0
-145 -151 -175 0
-145 -169 -175 0
-151 -169 -175 0
145 151 169 0
145 151 175 0
145 169 175 0
151 169 175 0
-149 -155 -173 0
-149 -155 -179 0
-149 -173 -179 0
-155 -173 -179 0
149 155 173 0
149 155 179 0
149 173 179 0
155 173 179 0
-724 -739 0
-724 -784 0
-724 -799 0
-739 -784 0
-739 -799 0
-784 -799 0
724 739 784 799 0
-1 -7 -13 0
-1 -7 -19 0
-1 -13 -19 0
-7 -13 -19 0
1 7 13 0
1 7 19 0
1 13 19 0
7 13 19 0
-6 -12 -18 0
-6 -12 -24 0
-6 -18 -24 0
-12 -18 -24 0
6 12 18 0
6 12 24 0
6 18 24 0
12 18 24 0
-365 -380 0
-365 -395 0
-365 -410 0
-380 -395 0
-380 -410 0
-395 -410 0
365 380 395 410 0
-97 -103 -181 -187 -253 0
-97 -103 -181 -187 -259 0
-97 -103 -181 -187 -313 0
-97 -103 -181 -187 -319 0
-97 -103 -181 -253 -259 0
-97 -103 -181 -253 -313 0
-97 -103 -181 -253 -319 0
-97 -103 -181 -259 -313 0
-97 -103 -181 -259 -319 0
-97 -103 -181 -313 -319 0
-97 -103 -187 -253 -259 0
-97 -103 -187 -253 -313 0
-97 -103 -187 -253 -319 0
-97 -103 -187 -259 -313 0
-97 -103 -187 -259 -319 0
-97 -103 -187 -313 -319 0
-97 -103 -253 -259 -313 0
-97 -103 -253 -259 -319 0
-97 -103 -253 -313 -319 0
-97 -103 -259 -313 -319 0
-97 -181 -187 -253 -259 0
-97 -181 -187 -253 -313 0
-97 -181 -187 -253 -319 0
-97 -181 -187 -259 -313 0
-97 -181 -187 -259 -319 0
-97 -181 -187 -313 -319 0
-97 -181 -253 -259 -313 0
-97 -181 -253 -259 -319 0
-97 -181 -253 -313 -319 0
-97 -181 -259 -313 -319 0
-97 -187 -253 -259 -313 0
-97 -187 -253 -259 -319 0
-97 -187 -253 -313 -319 0
-97 -187 -259 -313 -319 0
-97 -253 -259 -313 -319 0
-103 -181 -187 -253 -259 0
-103 -181 -187 -253 -313 0
-103 -181 -187 -253 -319 0
-103 -181 -187 -259 -313 0
-103 -181 -187 -259 -319 0
-103 -181 -187 -313 -319 0
-103 -181 -253 -259 -313 0
-103 -181 -253 -259 -319 0
-103 -181 -253 -313 -319 0
-103 -181 -259 -313 -319 0
-103 -187 -253 -259 -313 0
-103 -187 -253 -259 -319 0
-103 -187 -253 -313 -319 0
-103 -187 -259 -313 -319 0
-103 -253 -259 -313 -319 0
-181 -187 -253 -259 -313 0
-181 -187 -253 -259 -319 0
-181 -187 -253 -313 -319 0
-181 -187 -259 -313 -319 0
-181 -253 -259 -313 -319 0
-187 -253 -259 -313 -319 0
97 103 181 187 253 0
97 103 181 187 259 0
97 103 181 187 313 0
97 103 181 187 319 0
97 103 181 253 259 0
97 103 181 253 313 0
97 103 181 253 319 0
97 103 181 259 313 0
97 103 181 259 319 0
97 103 181 313 319 0
97 103 187 253 259 0
97 103 187 253 313 0
97 103 187 253 319 0
97 103 187 259 313 0
97 103 187 259 319 0
97 103 187 313 319 0
97 103 253 259 313 0
97 103 253 259 319 0
97 103 253 313 319 0
97 103 259 313 319 0
97 181 187 253 259 0
97 181 187 253 313 0
97 181 187 253 319 0
97 181 187 259 313 0
97 181 187 259 319 0
97 181 187 313 319 0
97 181 253 259 313 0
97 181 253 259 319 0
97 181 253 313 319 0
97 181 259 313 319 0
97 187 253 259 313 0
97 187 253 259 319 0
97 187 253 313 319 0
97 187 259 313 319 0
97 253 259 313 319 0
103 181 187 253 259 0
103 181 187 253 313 0
103 181 187 253 319 0
103 181 187 259 313 0
103 181 187 259 319 0
103 181 187 313 319 0
103 181 253 259 313 0
103 181 253 259 319 0
103 181 253 313 319 0
103 181 259 313 319 0
103 187 253 259 313 0
103 187 253 259 319 0
103 187 253 313 319 0
103 187 259 313 319 0
103 253 259 313 319 0
181 187 253 259 313 0
181 187 253 259 319 0
181 187 253 313 319 0
181 187 259 313 319 0
181 253 259 313 319 0
187 253 259 313 319 0
-102 -108 -186 -192 -258 0
-102 -108 -186 -192 -264 0
-102 -108 -186 -192 -318 0
-102 -108 -186 -192 -324 0
-102 -108 -186 -258 -264 0
-102 -108 -186 -258 -318 0
-102 -108 -186 -258 -324 0
-102 -108 -186 -264 -318 0
-102 -108 -186 -264 -324 0
-102 -108 -186 -318 -324 0
-102 -108 -192 -258 -264 0
-102 -108 -192 -258 -318 0
-102 -108 -192 -258 -324 0
-102 -108 -192 -264 -318 0
-102 -108 -192 -264 -324 0
-102 -108 -192 -318 -324 0
-102 -108 -258 -264 -318 0
-102 -108 -258 -264 -324 0
-102 -108 -258 -318 -324 0
-102 -108 -264 -318 -324 0
-102 -186 -192 -258 -264 0
-102 -186 -192 -258 -318 0
-102 -186 -192 -258 -324 0
-102 -186 -192 -264 -318 0
-102 -186 -192 -264 -324 0
-102 -186 -192 -318 -324 0
-102 -186 -258 -264 -318 0
-102 -186 -258 -264 -324 0
-102 -186 -258 -318 -324 0
-102 -186 -264 -318 -324 0
-102 -192 -258 -264 -318 0
-102 -192 -258 -264 -324 0
-102 -192 -258 -318 -324 0
-102 -192 -264 -318 -324 0
-102 -258 -264 -318 -324 0
-108 -186 -192 -258 -264 0
-108 -186 -192 -258 -318 0
-108 -186 -192 -258 -324 0
-108 -186 -192 -264 -318 0
-108 -186 -192 -264 -324 0
-108 -186 -192 -318 -324 0
-108 -186 -258 -264 -318 0
-108 -186 -258 -264 -324 0
-108 -186 -258 -318 -324 0
-108 -186 -264 -318 -324 0
-108 -192 -258 -264 -318 0
-108 -192 -258 -264 -324 0
-108 -192 -258 -318 -324 0
-108 -192 -264 -318 -324 0
-108 -258 -264 -318 -324 0
-186 -192 -258 -264 -318 0
-186 -192 -258 -264 -324 0
-186 -192 -258 -318 -324 0
-186 -192 -264 -318 -324 0
-186 -258 -264 -318 -324 0
-192 -258 -264 -318 -324 0
102 108 186 192 258 0
102 108 186 192 264 0
102 108 186 192 318 0
102 108 186 192 324 0
102 108 186 258 264 0
102 108 186 258 318 0
102 108 186 258 324 0
102 108 186 264 318 0
102 108 186 264 324 0
102 108 186 318 324 0
102 108 192 258 264 0
102 108 192 258 318 0
102 108 192 258 324 0
102 108 192 264 318 0
102 108 192 264 324 0
102 108 192 318 324 0
102 108 258 264 318 0
102 108 258 264 324 0
102 108 258 318 324 0
102 108 264 318 324 0
102 186 192 258 264 0
102 186 192 258 318 0
102 186 192 258 324 0
102 186 192 264 318 0
102 186 192 264 324 0
102 186 192 318 324 0
102 186 258 264 318 0
102 186 258 264 324 0
102 186 258 318 324 0
102 186 264 318 324 0
102 192 258 264 318 0
102 192 258 264 324 0
102 192 258 318 324 0
102 192 264 318 324 0
102 258 264 318 324 0
108 186 192 258 264 0
108 186 192 258 318 0
108 186 192 258 324 0
108 186 192 264 318 0
108 186 192 264 324 0
108 186 192 318 324 0
108 186 258 264 318 0
108 186 258 264 324 0
108 186 258 318 324 0
108 186 264 318 324 0
108 192 258 264 318 0
108 192 258 264 324 0
108 192 258 318 324 0
108 192 264 318 324 0
108 258 264 318 324 0
186 192 258 264 318 0
186 192 258 264 324 0
186 192 258 318 324 0
186 192 264 318 324 0
186 258 264 318 324 0
192 258 264 318 324 0
-605 -620 -815 0
-605 -620 -830 0
-605 -620 -995 0
-605 -620 -1010 0
-605 -620 -1145 0
-605 -620 -1160 0
-605 -815 -830 0
-605 -815 -995 0
-605 -815 -1010 0
-605 -815 -1145 0
-605 -815 -1160 0
-605 -830 -995 0
-605 -830 -1010 0
-605 -830 -1145 0
-605 -830 -1160 0
-605 -995 -1010 0
-605 -995 -1145 0
-605 -995 -1160 0
-605 -1010 -1145 0
-605 -1010 -1160 0
-605 -1145 -1160 0
-620 -815 -830 0
-620 -815 -995 0
-620 -815 -1010 0
-620 -815 -1145 0
-620 -815 -1160 0
-620 -830 -995 0
-620 -830 -1010 0
-620 -830 -1145 0
-620 -830 -1160 0
-620 -995 -1010 0
-620 -995 -1145 0
-620 -995 -1160 0
-620 -1010 -1145 0
-620 -1010 -1160 0
-620 -1145 -1160 0
-815 -830 -995 0
-815 -830 -1010 0
-815 -830 -1145 0
-815 -830 -1160 0
-815 -995 -1010 0
-815 -995 -1145 0
-815 -995 -1160 0
-815 -1010 -1145 0
-815 -1010 -1160 0
-815 -1145 -1160 0
-830 -995 -1010 0
-830 -995 -1145 0
-830 -995 -1160 0
-830 -1010 -1145 0
-830 -1010 -1160 0
-830 -1145 -1160 0
-995 -1010 -1145 0
-995 -1010 -1160 0
-995 -1145 -1160 0
-1010 -1145 -1160 0
605 620 815 830 995 1010 1145 0
605 620 815 830 995 1010 1160 0
605 620 815 830 995 1145 1160 0
605 620 815 830 1010 1145 1160 0
605 620 815 995 1010 1145 1160 0
605 620 830 995 1010 1145 1160 0
605 815 830 995 1010 1145 1160 0
620 815 830 995 1010 1145 1160 0
-121 -127 -205 -211 -277 0
-121 -127 -205 -211 -283 0
-121 -127 -205 -211 -337 0
-121 -127 -205 -211 -343 0
-121 -127 -205 -277 -283 0
-121 -127 -205 -277 -337 0
-121 -127 -205 -277 -343 0
-121 -127 -205 -283 -337 0
-121 -127 -205 -283 -343 0
-121 -127 -205 -337 -343 0
-121 -127 -211 -277 -283 0
-121 -127 -211 -277 -337 0
-121 -127 -211 -277 -343 0
-121 -127 -211 -283 -337 0
-121 -127 -211 -283 -343 0
-121 -127 -211 -337 -343 0
-121 -127 -277 -283 -337 0
-121 -127 -277 -283 -343 0
-121 -127 -277 -337 -343 0
-121 -127 -283 -337 -343 0
-121 -205 -211 -277 -283 0
-121 -205 -211 -277 -337 0
-121 -205 -211 -277 -343 0
-121 -205 -211 -283 -337 0
-121 -205 -211 -283 -343 0
-121 -205 -211 -337 -343 0
-121 -205 -277 -283 -337 0
-121 -205 -277 -283 -343 0
-121 -205 -277 -337 -343 0
-121 -205 -283 -337 -343 0
-121 -211 -277 -283 -337 0
-121 -211 -277 -283 -343 0
-121 -211 -277 -337 -343 0
-121 -211 -283 -337 -343 0
-121 -277 -283 -337 -343 0
-127 -205 -211 -277 -283 0
-127 -205 -211 -277 -337 0
-127 -205 -211 -277 -343 0
-127 -205 -211 -283 -337 0
-127 -205 -211 -283 -343 0
-127 -205 -211 -337 -343 0
-127 -205 -277 -283 -337 0
-127 -205 -277 -283 -343 0
-127 -205 -277 -337 -343 0
-127 -205 -283 -337 -343 0
-127 -211 -277 -283 -337 0
-127 -211 -277 -283 -343 0
-127 -211 -277 -337 -343 0
-127 -211 -283 -337 -343 0
-127 -277 -283 -337 -343 0
-205 -211 -277 -283 -337 0
-205 -211 -277 -283 -343 0
-205 -211 -277 -337 -343 0
-205 -211 -283 -337 -343 0
-205 -277 -283 -337 -343 0
-211 -277 -283 -337 -343 0
121 127 205 211 277 0
121 127 205 211 283 0
121 127 205 211 337 0
121 127 205 211 343 0
121 127 205 277 283 0
121 127 205 277 337 0
121 127 205 277 343 0
121 127 205 283 337 0
121 127 205 283 343 0
121 127 205 337 343 0
121 127 211 277 283 0
121 127 211 277 337 0
121 127 211 277 343 0
121 127 211 283 337 0
121 127 211 283 343 0
121 127 211 337 343 0
121 127 277 283 337 0
121 127 277 283 343 0
121 127 277 337 343 0
121 127 283 337 343 0
121 205 211 277 283 0
121 205 211 277 337 0
121 205 211 277 343 0
121 205 211 283 337 0
121 205 211 283 343 0
121 205 211 337 343 0
121 205 277 283 337 0
121 205 277 283 343 0
121 205 277 337 343 0
121 205 283 337 343 0
121 211 277 283 337 0
121 211 277 283 343 0
121 211 277 337 343 0
121 211 283 337 343 0
121 277 283 337 343 0
127 205 211 277 283 0
127 205 211 277 337 0
127 205 211 277 343 0
127 205 211 283 337 0
127 205 211 283 343 0
127 205 211 337 343 0
127 205 277 283 337 0
127 205 277 283 343 0
127 205 277 337 343 0
127 205 283 337 343 0
127 211 277 283 337 0
127 211 277 283 343 0
127 211 277 337 343 0
127 211 283 337 343 0
127 277 283 337 343 0
205 211 277 283 337 0
205 211 277 283 343 0
205 211 277 337 343 0
205 211 283 337 343 0
205 277 283 337 343 0
211 277 283 337 343 0
-126 -132 -210 -216 -282 0
-126 -132 -210 -216 -288 0
-126 -132 -210 -216 -342 0
-126 -132 -210 -216 -348 0
-126 -132 -210 -282 -288 0
-126 -132 -210 -282 -342 0
-126 -132 -210 -282 -348 0
-126 -132 -210 -288 -342 0
-126 -132 -210 -288 -348 0
-126 -132 -210 -342 -348 0
-126 -132 -216 -282 -288 0
-126 -132 -216 -282 -342 0
-126 -132 -216 -282 -348 0
-126 -132 -216 -288 -342 0
-126 -132 -216 -288 -348 0
-126 -132 -216 -342 -348 0
-126 -132 -282 -288 -342 0
-126 -132 -282 -288 -348 0
-126 -132 -282 -342 -348 0
-126 -132 -288 -342 -348 0
-126 -210 -216 -282 -288 0
-126 -210 -216 -282 -342 0
-126 -210 -216 -282 -348 0
-126 -210 -216 -288 -342 0
-126 -210 -216 -288 -348 0
-126 -210 -216 -342 -348 0
-126 -210 -282 -288 -342 0
-126 -210 -282 -288 -348 0
-126 -210 -282 -342 -348 0
-126 -210 -288 -342 -348 0
-126 -216 -282 -288 -342 0
-126 -216 -282 -288 -348 0
-126 -216 -282 -342 -348 0
-126 -216 -288 -342 -348 0
-126 -282 -288 -342 -348 0
-132 -210 -216 -282 -288 0
-132 -210 -216 -282 -342 0
-132 -210 -216 -282 -348 0
-132 -210 -216 -288 -342 0
-132 -210 -216 -288 -348 0
-132 -210 -216 -342 -348 0
-132 -210 -282 -288 -342 0
-132 -210 -282 -288 -348 0
-132 -210 -282 -342 -348 0
-132 -210 -288 -342 -348 0
-132 -216 -282 -288 -342 0
-132 -216 -282 -288 -348 0
-132 -216 -282 -342 -348 0
-132 -216 -288 -342 -348 0
-132 -282 -288 -342 -348 0
-210 -216 -282 -288 -342 0
-210 -216 -282 -288 -348 0
-210 -216 -282 -342 -348 0
-210 -216 -288 -342 -348 0
-210 -282 -288 -342 -348 0
-216 -282 -288 -342 -348 0
126 132 210 216 282 0
126 132 210 216 288 0
126 132 210 216 342 0
126 132 210 216 348 0
126 132 210 282 288 0
126 132 210 282 342 0
126 132 210 282 348 0
126 132 210 288 342 0
126 132 210 288 348 0
126 132 210 342 348 0
126 132 216 282 288 0
126 132 216 282 342 0
126 132 216 282 348 0
126 132 216 288 342 0
126 132 216 288 348 0
126 132 216 342 348 0
126 132 282 288 342 0
126 132 282 288 348 0
126 132 282 342 348 0
126 132 288 342 348 0
126 210 216 282 288 0
126 210 216 282 342 0
126 210 216 282 348 0
126 210 216 288 342 0
126 210 216 288 348 0
126 210 216 342 348 0
126 210 282 288 342 0
126 210 282 288 348 0
126 210 282 342 348 0
126 210 288 342 348 0
126 216 282 288 342 0
126 216 282 288 348 0
126 216 282 342 348 0
126 216 288 342 348 0
126 282 288 342 348 0
132 210 216 282 288 0
132 210 216 282 342 0
132 210 216 282 348 0
132 210 216 288 342 0
132 210 216 288 348 0
132 210 216 342 348 0
132 210 282 288 342 0
132 210 282 288 348 0
132 210 282 342 348 0
132 210 288 342 348 0
132 216 282 288 342 0
132 216 282 288 348 0
132 216 282 342 348 0
132 216 288 342 348 0
132 282 288 342 348 0
210 216 282 288 342 0
210 216 282 288 348 0
210 216 282 342 348 0
210 216 288 342 348 0
210 282 288 342 348 0
216 282 288 342 348 0
-665 -680 -875 0
-665 -680 -890 0
-665 -680 -1055 0
-665 -680 -1070 0
-665 -680 -1205 0
-665 -680 -1220 0
-665 -875 -890 0
-665 -875 -1055 0
-665 -875 -1070 0
-665 -875 -1205 0
-665 -875 -1220 0
-665 -890 -1055 0
-665 -890 -1070 0
-665 -890 -1205 0
-665 -890 -1220 0
-665 -1055 -1070 0
-665 -1055 -1205 0
-665 -1055 -1220 0
-665 -1070 -1205 0
-665 -1070 -1220 0
-665 -1205 -1220 0
-680 -875 -890 0
-680 -875 -1055 0
-680 -875 -1070 0
-680 -875 -1205 0
-680 -875 -1220 0
-680 -890 -1055 0
-680 -890 -1070 0
-680 -890 -1205 0
-680 -890 -1220 0
-680 -1055 -1070 0
-680 -1055 -1205 0
-680 -1055 -1220 0
-680 -1070 -1205 0
-680 -1070 -1220 0
-680 -1205 -1220 0
-875 -890 -1055 0
-875 -890 -1070 0
-875 -890 -1205 0
-875 -890 -1220 0
-875 -1055 -1070 0
-875 -1055 -1205 0
-875 -1055 -1220 0
-875 -1070 -1205 0
-875 -1070 -1220 0
-875 -1205 -1220 0
-890 -1055 -1070 0
-890 -1055 -1205 0
-890 -1055 -1220 0
-890 -1070 -1205 0
-890 -1070 -1220 0
-890 -1205 -1220 0
-1055 -1070 -1205 0
-1055 -1070 -1220 0
-1055 -1205 -1220 0
-1070 -1205 -1220 0
665 680 875 890 1055 1070 1205 0
665 680 875 890 1055 1070 1220 0
665 680 875 890 1055 1205 1220 0
665 680 875 890 1070 1205 1220 0
665 680 875 1055 1070 1205 1220 0
665 680 890 1055 1070 1205 1220 0
665 875 890 1055 1070 1205 1220 0
680 875 890 1055 1070 1205 1220 0
-73 -79 -157 -163 -229 0
-73 -79 -157 -163 -235 0
-73 -79 -157 -163 -289 0
-73 -79 -157 -163 -295 0
-73 -79 -157 -229 -235 0
-73 -79 -157 -229 -289 0
-73 -79 -157 -229 -295 0
-73 -79 -157 -235 -289 0
-73 -79 -157 -235 -295 0
-73 -79 -157 -289 -295 0
-73 -79 -163 -229 -235 0
-73 -79 -163 -229 -289 0
-73 -79 -163 -229 -295 0
-73 -79 -163 -235 -289 0
-73 -79 -163 -235 -295 0
-73 -79 -163 -289 -295 0
-73 -79 -229 -235 -289 0
-73 -79 -229 -235 -295 0
-73 -79 -229 -289 -295 0
-73 -79 -235 -289 -295 0
-73 -157 -163 -229 -235 0
-73 -157 -163 -229 -289 0
-73 -157 -163 -229 -295 0
-73 -157 -163 -235 -289 0
-73 -157 -163 -235 -295 0
-73 -157 -163 -289 -295 0
-73 -157 -229 -235 -289 0
-73 -157 -229 -235 -295 0
-73 -157 -229 -289 -295 0
-73 -157 -235 -289 -295 0
-73 -163 -229 -235 -289 0
-73 -163 -229 -235 -295 0
-73 -163 -229 -289 -295 0
-73 -163 -235 -289 -295 0
-73 -229 -235 -289 -295 0
-79 -157 -163 -229 -235 0
-79 -157 -163 -229 -289 0
-79 -157 -163 -229 -295 0
-79 -157 -163 -235 -289 0
-79 -157 -163 -235 -295 0
-79 -157 -163 -289 -295 0
-79 -157 -229 -235 -289 0
-79 -157 -229 -235 -295 0
-79 -157 -229 -289 -295 0
-79 -157 -235 -289 -295 0
-79 -163 -229 -235 -289 0
-79 -163 -229 -235 -295 0
-79 -163 -229 -289 -295 0
-79 -163 -235 -289 -295 0
-79 -229 -235 -289 -295 0
-157 -163 -229 -235 -289 0
-157 -163 -229 -235 -295 0
-157 -163 -229 -289 -295 0
-157 -163 -235 -289 -295 0
-157 -229 -235 -289 -295 0
-163 -229 -235 -289 -295 0
73 79 157 163 229 0
73 79 157 163 235 0
73 79 157 163 289 0
73 79 157 163 295 0
73 79 157 229 235 0
73 79 157 229 289 0
73 79 157 229 295 0
73 79 157 235 289 0
73 79 157 235 295 0
73 79 157 289 295 0
73 79 163 229 235 0
73 79 163 229 289 0
73 79 163 229 295 0
73 79 163 235 289 0
73 79 163 235 295 0
73 79 163 289 295 0
73 79 229 235 289 0
73 79 229 235 295 0
73 79 229 289 295 0
73 79 235 289 295 0
73 157 163 229 235 0
73 157 163 229 289 0
73 157 163 229 295 0
73 157 163 235 289 0
73 157 163 235 295 0
73 157 163 289 295 0
73 157 229 235 289 0
73 157 229 235 295 0
73 157 229 289 295 0
73 157 235 289 295 0
73 163 229 235 289 0
73 163 229 235 295 0
73 163 229 289 295 0
73 163 235 289 295 0
73 229 235 289 295 0
79 157 163 229 235 0
79 157 163 229 289 0
79 157 163 229 295 0
79 157 163 235 289 0
79 157 163 235 295 0
79 157 163 289 295 0
79 157 229 235 289 0
79 157 229 235 295 0
79 157 229 289 295 0
79 157 235 289 295 0
79 163 229 235 289 0
79 163 229 235 295 0
79 163 229 289 295 0
79 163 235 289 295 0
79 229 235 289 295 0
157 163 229 235 289 0
157 163 229 235 295 0
157 163 229 289 295 0
157 163 235 289 295 0
157 229 235 289 295 0
163 229 235 289 295 0
-78 -84 -162 -168 -234 0
-78 -84 -162 -168 -240 0
-78 -84 -162 -168 -294 0
-78 -84 -162 -168 -300 0
-78 -84 -162 -234 -240 0
-78 -84 -162 -234 -294 0
-78 -84 -162 -234 -300 0
-78 -84 -162 -240 -294 0
-78 -84 -162 -240 -300 0
-78 -84 -162 -294 -300 0
-78 -84 -168 -234 -240 0
-78 -84 -168 -234 -294 0
-78 -84 -168 -234 -300 0
-78 -84 -168 -240 -294 0
-78 -84 -168 -240 -300 0
-78 -84 -168 -294 -300 0
-78 -84 -234 -240 -294 0
-78 -84 -234 -240 -300 0
-78 -84 -234 -294 -300 0
-78 -84 -240 -294 -300 0
-78 -162 -168 -234 -240 0
-78 -162 -168 -234 -294 0
-78 -162 -168 -234 -300 0
-78 -162 -168 -240 -294 0
-78 -162 -168 -240 -300 0
-78 -162 -168 -294 -300 0
-78 -162 -234 -240 -294 0
-78 -162 -234 -240 -300 0
-78 -162 -234 -294 -300 0
-78 -162 -240 -294 -300 0
-78 -168 -234 -240 -294 0
-78 -168 -234 -240 -300 0
-78 -168 -234 -294 -300 0
-78 -168 -240 -294 -300 0
-78 -234 -240 -294 -300 0
-84 -162 -168 -234 -240 0
-84 -162 -168 -234 -294 0
-84 -162 -168 -234 -300 0
-84 -162 -168 -240 -294 0
-84 -162 -168 -240 -300 0
-84 -162 -168 -294 -300 0
-84 -162 -234 -240 -294 0
-84 -162 -234 -240 -300 0
-84 -162 -234 -294 -300 0
-84 -162 -240 -294 -300 0
-84 -168 -234 -240 -294 0
-84 -168 -234 -240 -300 0
-84 -168 -234 -294 -300 0
-84 -168 -240 -294 -300 0
-84 -234 -240 -294 -300 0
-162 -168 -234 -240 -294 0
-162 -168 -234 -240 -300 0
-162 -168 -234 -294 -300 0
-162 -168 -240 -294 -300 0
-162 -234 -240 -294 -300 0
-168 -234 -240 -294 -300 0
78 84 162 168 234 0
78 84 162 168 240 0
78 84 162 168 294 0
78 84 162 168 300 0
78 84 162 234 240 0
78 84 162 234 294 0
78 84 162 234 300 0
78 84 162 240 294 0
78 84 162 240 300 0
78 84 162 294 300 0
78 84 168 234 240 0
78 84 168 234 294 0
78 84 168 234 300 0
78 84 168 240 294 0
78 84 168 240 300 0
78 84 168 294 300 0
78 84 234 240 294 0
78 84 234 240 300 0
78 84 234 294 300 0
78 84 240 294 300 0
78 162 168 234 240 0
78 162 168 234 294 0
78 162 168 234 300 0
78 162 168 240 294 0
78 162 168 240 300 0
78 162 168 294 300 0
78 162 234 240 294 0
78 162 234 240 300 0
78 162 234 294 300 0
78 162 240 294 300 0
78 168 234 240 294 0
78 168 234 240 300 0
78 168 234 294 300 0
78 168 240 294 300 0
78 234 240 294 300 0
84 162 168 234 240 0
84 162 168 234 294 0
84 162 168 234 300 0
84 162 168 240 294 0
84 162 168 240 300 0
84 162 168 294 300 0
84 162 234 240 294 0
84 162 234 240 300 0
84 162 234 294 300 0
84 162 240 294 300 0
84 168 234 240 294 0
84 168 234 240 300 0
84 168 234 294 300 0
84 168 240 294 300 0
84 234 240 294 300 0
162 168 234 240 294 0
162 168 234 240 300 0
162 168 234 294 300 0
162 168 240 294 300 0
162 234 240 294 300 0
168 234 240 294 300 0
-545 -560 -755 0
-545 -560 -770 0
-545 -560 -935 0
-545 -560 -950 0
-545 -560 -1085 0
-545 -560 -1100 0
-545 -755 -770 0
-545 -755 -935 0
-545 -755 -950 0
-545 -755 -1085 0
-545 -755 -1100 0
-545 -770 -935 0
-545 -770 -950 0
-545 -770 -1085 0
-545 -770 -1100 0
-545 -935 -950 0
-545 -935 -1085 0
-545 -935 -1100 0
-545 -950 -1085 0
-545 -950 -1100 0
-545 -1085 -1100 0
-560 -755 -770 0
-560 -755 -935 0
-560 -755 -950 0
-560 -755 -1085 0
-560 -755 -1100 0
-560 -770 -935 0
-560 -770 -950 0
-560 -770 -1085 0
-560 -770 -1100 0
-560 -935 -950 0
-560 -935 -1085 0
-560 -935 -1100 0
-560 -950 -1085 0
-560 -950 -1100 0
-560 -1085 -1100 0
-755 -770 -935 0
-755 -770 -950 0
-755 -770 -1085 0
-755 -770 -1100 0
-755 -935 -950 0
-755 -935 -1085 0
-755 -935 -1100 0
-755 -950 -1085 0
-755 -950 -1100 0
-755 -1085 -1100 0
-770 -935 -950 0
-770 -935 -1085 0
-770 -935 -1100 0
-770 -950 -1085 0
-770 -950 -1100 0
-770 -1085 -1100 0
-935 -950 -1085 0
-935 -950 -1100 0
-935 -1085 -1100 0
-950 -1085 -1100 0
545 560 755 770 935 950 1085 0
545 560 755 770 935 950 1100 0
545 560 755 770 935 1085 1100 0
545 560 755 770 950 1085 1100 0
545 560 755 935 950 1085 1100 0
545 560 770 935 950 1085 1100 0
545 755 770 935 950 1085 1100 0
560 755 770 935 950 1085 1100 0
-25 -31 -37 0
-25 -31 -43 0
-25 -37 -43 0
-31 -37 -43 0
25 31 37 0
25 31 43 0
25 37 43 0
31 37 43 0
-30 -36 -42 0
-30 -36 -48 0
-30 -42 -48 0
-36 -42 -48 0
30 36 42 0
30 36 48 0
30 42 48 0
36 42 48 0
-425 -440 0
-425 -455 0
-425 -470 0
-440 -455 0
-440 -470 0
-455 -470 0
425 440 455 470 0
-133 -139 -193 -199 -265 0
-133 -139 -193 -199 -271 0
-133 -139 -193 -199 -349 0
-133 -139 -193 -199 -355 0
-133 -139 -193 -265 -271 0
-133 -139 -193 -265 -349 0
-133 -139 -193 -265 -355 0
-133 -139 -193 -271 -349 0
-133 -139 -193 -271 -355 0
-133 -139 -193 -349 -355 0
-133 -139 -199 -265 -271 0
-133 -139 -199 -265 -349 0
-133 -139 -199 -265 -355 0
-133 -139 -199 -271 -349 0
-133 -139 -199 -271 -355 0
-133 -139 -199 -349 -355 0
-133 -139 -265 -271 -349 0
-133 -139 -265 -271 -355 0
-133 -139 -265 -349 -355 0
-133 -139 -271 -349 -355 0
-133 -193 -199 -265 -271 0
-133 -193 -199 -265 -349 0
-133 -193 -199 -265 -355 0
-133 -193 -199 -271 -349 0
-133 -193 -199 -271 -355 0
-133 -193 -199 -349 -355 0
-133 -193 -265 -271 -349 0
-133 -193 -265 -271 -355 0
-133 -193 -265 -349 -355 0
-133 -193 -271 -349 -355 0
-133 -199 -265 -271 -349 0
-133 -199 -265 -271 -355 0
-133 -199 -265 -349 -355 0
-133 -199 -271 -349 -355 0
-133 -265 -271 -349 -355 0
-139 -193 -199 -265 -271 0
-139 -193 -199 -265 -349 0
-139 -193 -199 -265 -355 0
-139 -193 -199 -271 -349 0
-139 -193 -199 -271 -355 0
-139 -193 -199 -349 -355 0
-139 -193 -265 -271 -349 0
-139 -193 -265 -271 -355 0
-139 -193 -265 -349 -355 0
-139 -193 -271 -349 -355 0
-139 -199 -265 -271 -349 0
-139 -199 -265 -271 -355 0
-139 -199 -265 -349 -355 0
-139 -199 -271 -349 -355 0
-139 -265 -271 -349 -355 0
-193 -199 -265 -271 -349 0
-193 -199 -265 -271 -355 0
-193 -199 -265 -349 -355 0
-193 -199 -271 -349 -355 0
-193 -265 -271 -349 -355 0
-199 -265 -271 -349 -355 0
133 139 193 199 265 0
133 139 193 199 271 0
133 139 193 199 349 0
133 139 193 199 355 0
133 139 193 265 271 0
133 139 193 265 349 0
133 139 193 265 355 0
133 139 193 271 349 0
133 139 193 271 355 0
133 139 193 349 355 0
133 139 199 265 271 0
133 139 199 265 349 0
133 139 199 265 355 0
133 139 199 271 349 0
133 139 199 271 355 0
133 139 199 349 355 0
133 139 265 271 349 0
133 139 265 271 355 0
133 139 265 349 355 0
133 139 271 349 355 0
133 193 199 265 271 0
133 193 199 265 349 0
133 193 199 265 355 0
133 193 199 271 349 0
133 193 199 271 355 0
133 193 199 349 355 0
133 193 265 271 349 0
133 193 265 271 355 0
133 193 265 349 355 0
133 193 271 349 355 0
133 199 265 271 349 0
133 199 265 271 355 0
133 199 265 349 355 0
133 199 271 349 355 0
133 265 271 349 355 0
139 193 199 265 271 0
139 193 199 265 349 0
139 193 199 265 355 0
139 193 199 271 349 0
139 193 199 271 355 0
139 193 199 349 355 0
139 193 265 271 349 0
139 193 265 271 355 0
139 193 265 349 355 0
139 193 271 349 355 0
139 199 265 271 349 0
139 199 265 271 355 0
139 199 265 349 355 0
139 199 271 349 355 0
139 265 271 349 355 0
193 199 265 271 349 0
193 199 265 271 355 0
193 199 265 349 355 0
193 199 271 349 355 0
193 265 271 349 355 0
199 265 271 349 355 0
-138 -144 -198 -204 -270 0
-138 -144 -198 -204 -276 0
-138 -144 -198 -204 -354 0
-138 -144 -198 -204 -360 0
-138 -144 -198 -270 -276 0
-138 -144 -198 -270 -354 0
-138 -144 -198 -270 -360 0
-138 -144 -198 -276 -354 0
-138 -144 -198 -276 -360 0
-138 -144 -198 -354 -360 0
-138 -144 -204 -270 -276 0
-138 -144 -204 -270 -354 0
-138 -144 -204 -270 -360 0
-138 -144 -204 -276 -354 0
-138 -144 -204 -276 -360 0
-138 -144 -204 -354 -360 0
-138 -144 -270 -276 -354 0
-138 -144 -270 -276 -360 0
-138 -144 -270 -354 -360 0
-138 -144 -276 -354 -360 0
-138 -198 -204 -270 -276 0
-138 -198 -204 -270 -354 0
-138 -198 -204 -270 -360 0
-138 -198 -204 -276 -354 0
-138 -198 -204 -276 -360 0
-138 -198 -204 -354 -360 0
-138 -198 -270 -276 -354 0
-138 -198 -270 -276 -360 0
-138 -198 -270 -354 -360 0
-138 -198 -276 -354 -360 0
-138 -204 -270 -276 -354 0
-138 -204 -270 -276 -360 0
-138 -204 -270 -354 -360 0
-138 -204 -276 -354 -360 0
-138 -270 -276 -354 -360 0
-144 -198 -204 -270 -276 0
-144 -198 -204 -270 -354 0
-144 -198 -204 -270 -360 0
-144 -198 -204 -276 -354 0
-144 -198 -204 -276 -360 0
-144 -198 -204 -354 -360 0
-144 -198 -270 -276 -354 0
-144 -198 -270 -276 -360 0
-144 -198 -270 -354 -360 0
-144 -198 -276 -354 -360 0
-144 -204 -270 -276 -354 0
-144 -204 -270 -276 -360 0
-144 -204 -270 -354 -360 0
-144 -204 -276 -354 -360 0
-144 -270 -276 -354 -360 0
-198 -204 -270 -276 -354 0
-198 -204 -270 -276 -360 0
-198 -204 -270 -354 -360 0
-198 -204 -276 -354 -360 0
-198 -270 -276 -354 -360 0
-204 -270 -276 -354 -360 0
138 144 198 204 270 0
138 144 198 204 276 0
138 144 198 204 354 0
138 144 198 204 360 0
138 144 198 270 276 0
138 144 198 270 354 0
138 144 198 270 360 0
138 144 198 276 354 0
138 144 198 276 360 0
138 144 198 354 360 0
138 144 204 270 276 0
138 144 204 270 354 0
138 144 204 270 360 0
138 144 204 276 354 0
138 144 204 276 360 0
138 144 204 354 360 0
138 144 270 276 354 0
138 144 270 276 360 0
138 144 270 354 360 0
138 144 276 354 360 0
138 198 204 270 276 0
138 198 204 270 354 0
138 198 204 270 360 0
138 198 204 276 354 0
138 198 204 276 360 0
138 198 204 354 360 0
138 198 270 276 354 0
138 198 270 276 360 0
138 198 270 354 360 0
138 198 276 354 360 0
138 204 270 276 354 0
138 204 270 276 360 0
138 204 270 354 360 0
138 204 276 354 360 0
138 270 276 354 360 0
144 198 204 270 276 0
144 198 204 270 354 0
144 198 204 270 360 0
144 198 204 276 354 0
144 198 204 276 360 0
144 198 204 354 360 0
144 198 270 276 354 0
144 198 270 276 360 0
144 198 270 354 360 0
144 198 276 354 360 0
144 204 270 276 354 0
144 204 270 276 360 0
144 204 270 354 360 0
144 204 276 354 360 0
144 270 276 354 360 0
198 204 270 276 354 0
198 204 270 276 360 0
198 204 270 354 360 0
198 204 276 354 360 0
198 270 276 354 360 0
204 270 276 354 360 0
-695 -710 -845 0
-695 -710 -860 0
-695 -710 -1025 0
-695 -710 -1040 0
-695 -710 -1235 0
-695 -710 -1250 0
-695 -845 -860 0
-695 -845 -1025 0
-695 -845 -1040 0
-695 -845 -1235 0
-695 -845 -1250 0
-695 -860 -1025 0
-695 -860 -1040 0
-695 -860 -1235 0
-695 -860 -1250 0
-695 -1025 -1040 0
-695 -1025 -1235 0
-695 -1025 -1250 0
-695 -1040 -1235 0
-695 -1040 -1250 0
-695 -1235 -1250 0
-710 -845 -860 0
-710 -845 -1025 0
-710 -845 -1040 0
-710 -845 -1235 0
-710 -845 -1250 0
-710 -860 -1025 0
-710 -860 -1040 0
-710 -860 -1235 0
-710 -860 -1250 0
-710 -1025 -1040 0
-710 -1025 -1235 0
-710 -1025 -1250 0
-710 -1040 -1235 0
-710 -1040 -1250 0
-710 -1235 -1250 0
-845 -860 -1025 0
-845 -860 -1040 0
-845 -860 -1235 0
-845 -860 -1250 0
-845 -1025 -1040 0
-845 -1025 -1235 0
-845 -1025 -1250 0
-845 -1040 -1235 0
-845 -1040 -1250 0
-845 -1235 -1250 0
-860 -1025 -1040 0
-860 -1025 -1235 0
-860 -1025 -1250 0
-860 -1040 -1235 0
-860 -1040 -1250 0
-860 -1235 -1250 0
-1025 -1040 -1235 0
-1025 -1040 -1250 0
-1025 -1235 -1250 0
-1040 -1235 -1250 0
695 710 845 860 1025 1040 1235 0
695 710 845 860 1025 1040 1250 0
695 710 845 860 1025 1235 1250 0
695 710 845 860 1040 1235 1250 0
695 710 845 1025 1040 1235 1250 0
695 710 860 1025 1040 1235 1250 0
695 845 860 1025 1040 1235 1250 0
710 845 860 1025 1040 1235 1250 0
-85 -91 -145 -151 -217 0
-85 -91 -145 -151 -223 0
-85 -91 -145 -151 -301 0
-85 -91 -145 -151 -307 0
-85 -91 -145 -217 -223 0
-85 -91 -145 -217 -301 0
-85 -91 -145 -217 -307 0
-85 -91 -145 -223 -301 0
-85 -91 -145 -223 -307 0
-85 -91 -145 -301 -307 0
-85 -91 -151 -217 -223 0
-85 -91 -151 -217 -301 0
-85 -91 -151 -217 -307 0
-85 -91 -151 -223 -301 0
-85 -91 -151 -223 -307 0
-85 -91 -151 -301 -307 0
-85 -91 -217 -223 -301 0
-85 -91 -217 -223 -307 0
-85 -91 -217 -301 -307 0
-85 -91 -223 -301 -307 0
-85 -145 -151 -217 -223 0
-85 -145 -151 -217 -301 0
-85 -145 -151 -217 -307 0
-85 -145 -151 -223 -301 0
-85 -145 -151 -223 -307 0
-85 -145 -151 -301 -307 0
-85 -145 -217 -223 -301 0
-85 -145 -217 -223 -307 0
-85 -145 -217 -301 -307 0
-85 -145 -223 -301 -307 0
-85 -151 -217 -223 -301 0
-85 -151 -217 -223 -307 0
-85 -151 -217 -301 -307 0
-85 -151 -223 -301 -307 0
-85 -217 -223 -301 -307 0
-91 -145 -151 -217 -223 0
-91 -145 -151 -217 -301 0
-91 -145 -151 -217 -307 0
-91 -145 -151 -223 -301 0
-91 -145 -151 -223 -307 0
-91 -145 -151 -301 -307 0
-91 -145 -217 -223 -301 0
-91 -145 -217 -223 -307 0
-91 -145 -217 -301 -307 0
-91 -145 -223 -301 -307 0
-91 -151 -217 -223 -301 0
-91 -151 -217 -223 -307 0
-91 -151 -217 -301 -307 0
-91 -151 -223 -301 -307 0
-91 -217 -223 -301 -307 0
-145 -151 -217 -223 -301 0
-145 -151 -217 -223 -307 0
-145 -151 -217 -301 -307 0
-145 -151 -223 -301 -307 0
-145 -217 -223 -301 -307 0
-151 -217 -223 -301 -307 0
85 91 145 151 217 0
85 91 145 151 223 0
85 91 145 151 301 0
85 91 145 151 307 0
85 91 145 217 223 0
85 91 145 217 301 0
85 91 145 217 307 0
85 91 145 223 301 0
85 91 145 223 307 0
85 91 145 301 307 0
85 91 151 217 223 0
85 91 151 217 301 0
85 91 151 217 307 0
85 91 151 223 301 0
85 91 151 223 307 0
85 91 151 301 307 0
85 91 217 223 301 0
85 91 217 223 307 0
85 91 217 301 307 0
85 91 223 301 307 0
85 145 151 217 223 0
85 145 151 217 301 0
85 145 151 217 307 0
85 145 151 223 301 0
85 145 151 223 307 0
85 145 151 301 307 0
85 145 217 223 301 0
85 145 217 223 307 0
85 145 217 301 307 0
85 145 223 301 307 0
85 151 217 223 301 0
85 151 217 223 307 0
85 151 217 301 307 0
85 151 223 301 307 0
85 217 223 301 307 0
91 145 151 217 223 0
91 145 151 217 301 0
91 145 151 217 307 0
91 145 151 223 301 0
91 145 151 223 307 0
91 145 151 301 307 0
91 145 217 223 301 0
91 145 217 223 307 0
91 145 217 301 307 0
91 145 223 301 307 0
91 151 217 223 301 0
91 151 217 223 307 0
91 151 217 301 307 0
91 151 223 301 307 0
91 217 223 301 307 0
145 151 217 223 301 0
145 151 217 223 307 0
145 151 217 301 307 0
145 151 223 301 307 0
145 217 223 301 307 0
151 217 223 301 307 0
-90 -96 -150 -156 -222 0
-90 -96 -150 -156 -228 0
-90 -96 -150 -156 -306 0
-90 -96 -150 -156 -312 0
-90 -96 -150 -222 -228 0
-90 -96 -150 -222 -306 0
-90 -96 -150 -222 -312 0
-90 -96 -150 -228 -306 0
-90 -96 -150 -228 -312 0
-90 -96 -150 -306 -312 0
-90 -96 -156 -222 -228 0
-90 -96 -156 -222 -306 0
-90 -96 -156 -222 -312 0
-90 -96 -156 -228 -306 0
-90 -96 -156 -228 -312 0
-90 -96 -156 -306 -312 0
-90 -96 -222 -228 -306 0
-90 -96 -222 -228 -312 0
-90 -96 -222 -306 -312 0
-90 -96 -228 -306 -312 0
-90 -150 -156 -222 -228 0
-90 -150 -156 -222 -306 0
-90 -150 -156 -222 -312 0
-90 -150 -156 -228 -306 0
-90 -150 -156 -228 -312 0
-90 -150 -156 -306 -312 0
-90 -150 -222 -228 -306 0
-90 -150 -222 -228 -312 0
-90 -150 -222 -306 -312 0
-90 -150 -228 -306 -312 0
-90 -156 -222 -228 -306 0
-90 -156 -222 -228 -312 0
-90 -156 -222 -306 -312 0
-90 -156 -228 -306 -312 0
-90 -222 -228 -306 -312 0
-96 -150 -156 -222 -228 0
-96 -150 -156 -222 -306 0
-96 -150 -156 -222 -312 0
-96 -150 -156 -228 -306 0
-96 -150 -156 -228 -312 0
-96 -150 -156 -306 -312 0
-96 -150 -222 -228 -306 0
-96 -150 -222 -228 -312 0
-96 -150 -222 -306 -312 0
-96 -150 -228 -306 -312 0
-96 -156 -222 -228 -306 0
-96 -156 -222 -228 -312 0
-96 -156 -222 -306 -312 0
-96 -156 -228 -306 -312 0
-96 -222 -228 -306 -312 0
-150 -156 -222 -228 -306 0
-150 -156 -222 -228 -312 0
-150 -156 -222 -306 -312 0
-150 -156 -228 -306 -312 0
-150 -222 -228 -306 -312 0
-156 -222 -228 -306 -312 0
90 96 150 156 222 0
90 96 150 156 228 0
90 96 150 156 306 0
90 96 150 156 312 0
90 96 150 222 228 0
90 96 150 222 306 0
90 96 150 222 312 0
90 96 150 228 306 0
90 96 150 228 312 0
90 96 150 306 312 0
90 96 156 222 228 0
90 96 156 222 306 0
90 96 156 222 312 0
90 96 156 228 306 0
90 96 156 228 312 0
90 96 156 306 312 0
90 96 222 228 306 0
90 96 222 228 312 0
90 96 222 306 312 0
90 96 228 306 312 0
90 150 156 222 228 0
90 150 156 222 306 0
90 150 156 222 312 0
90 150 156 228 306 0
90 150 156 228 312 0
90 150 156 306 312 0
90 150 222 228 306 0
90 150 222 228 312 0
90 150 222 306 312 0
90 150 228 306 312 0
90 156 222 228 306 0
90 156 222 228 312 0
90 156 222 306 312 0
90 156 228 306 312 0
90 222 228 306 312 0
96 150 156 222 228 0
96 150 156 222 306 0
96 150 156 222 312 0
96 150 156 228 306 0
96 150 156 228 312 0
96 150 156 306 312 0
96 150 222 228 306 0
96 150 222 228 312 0
96 150 222 306 312 0
96 150 228 306 312 0
96 156 222 228 306 0
96 156 222 228 312 0
96 156 222 306 312 0
96 156 228 306 312 0
96 222 228 306 312 0
150 156 222 228 306 0
150 156 222 228 312 0
150 156 222 306 312 0
150 156 228 306 312 0
150 222 228 306 312 0
156 222 228 306 312 0
-575 -590 -725 0
-575 -590 -740 0
-575 -590 -905 0
-575 -590 -920 0
-575 -590 -1115 0
-575 -590 -1130 0
-575 -725 -740 0
-575 -725 -905 0
-575 -725 -920 0
-575 -725 -1115 0
-575 -725 -1130 0
-575 -740 -905 0
-575 -740 -920 0
-575 -740 -1115 0
-575 -740 -1130 0
-575 -905 -920 0
-575 -905 -1115 0
-575 -905 -1130 0
-575 -920 -1115 0
-575 -920 -1130 0
-575 -1115 -1130 0
-590 -725 -740 0
-590 -725 -905 0
-590 -725 -920 0
-590 -725 -1115 0
-590 -725 -1130 0
-590 -740 -905 0
-590 -740 -920 0
-590 -740 -1115 0
-590 -740 -1130 0
-590 -905 -920 0
-590 -905 -1115 0
-590 -905 -1130 0
-590 -920 -1115 0
-590 -920 -1130 0
-590 -1115 -1130 0
-725 -740 -905 0
-725 -740 -920 0
-725 -740 -1115 0
-725 -740 -1130 0
-725 -905 -920 0
-725 -905 -1115 0
-725 -905 -1130 0
-725 -920 -1115 0
-725 -920 -1130 0
-725 -1115 -1130 0
-740 -905 -920 0
-740 -905 -1115 0
-740 -905 -1130 0
-740 -920 -1115 0
-740 -920 -1130 0
-740 -1115 -1130 0
-905 -920 -1115 0
-905 -920 -1130 0
-905 -1115 -1130 0
-920 -1115 -1130 0
575 590 725 740 905 920 1115 0
575 590 725 740 905 920 1130 0
575 590 725 740 905 1115 1130 0
575 590 725 740 920 1115 1130 0
575 590 725 905 920 1115 1130 0
575 590 740 905 920 1115 1130 0
575 725 740 905 920 1115 1130 0
590 725 740 905 920 1115 1130 0
-109 -115 -169 -175 -241 0
-109 -115 -169 -175 -247 0
-109 -115 -169 -175 -325 0
-109 -115 -169 -175 -331 0
-109 -115 -169 -241 -247 0
-109 -115 -169 -241 -325 0
-109 -115 -169 -241 -331 0
-109 -115 -169 -247 -325 0
-109 -115 -169 -247 -331 0
-109 -115 -169 -325 -331 0
-109 -115 -175 -241 -247 0
-109 -115 -175 -241 -325 0
-109 -115 -175 -241 -331 0
-109 -115 -175 -247 -325 0
-109 -115 -175 -247 -331 0
-109 -115 -175 -325 -331 0
-109 -115 -241 -247 -325 0
-109 -115 -241 -247 -331 0
-109 -115 -241 -325 -331 0
-109 -115 -247 -325 -331 0
-109 -169 -175 -241 -247 0
-109 -169 -175 -241 -325 0
-109 -169 -175 -241 -331 0
-109 -169 -175 -247 -325 0
-109 -169 -175 -247 -331 0
-109 -169 -175 -325 -331 0
-109 -169 -241 -247 -325 0
-109 -169 -241 -247 -331 0
-109 -169 -241 -325 -331 0
-109 -169 -247 -325 -331 0
-109 -175 -241 -247 -325 0
-109 -175 -241 -247 -331 0
-109 -175 -241 -325 -331 0
-109 -175 -247 -325 -331 0
-109 -241 -247 -325 -331 0
-115 -169 -175 -241 -247 0
-115 -169 -175 -241 -325 0
-115 -169 -175 -241 -331 0
-115 -169 -175 -247 -325 0
-115 -169 -175 -247 -331 0
-115 -169 -175 -325 -331 0
-115 -169 -241 -247 -325 0
-115 -169 -241 -247 -331 0
-115 -169 -241 -325 -331 0
-115 -169 -247 -325 -331 0
-115 -175 -241 -247 -325 0
-115 -175 -241 -247 -331 0
-115 -175 -241 -325 -331 0
-115 -175 -247 -325 -331 0
-115 -241 -247 -325 -331 0
-169 -175 -241 -247 -325 0
-169 -175 -241 -247 -331 0
-169 -175 -241 -325 -331 0
-169 -175 -247 -325 -331 0
-169 -241 -247 -325 -331 0
-175 -241 -247 -325 -331 0
109 115 169 175 241 0
109 115 169 175 247 0
109 115 169 175 325 0
109 115 169 175 331 0
109 115 169 241 247 0
109 115 169 241 325 0
109 115 169 241 331 0
109 115 169 247 325 0
109 115 169 247 331 0
109 115 169 325 331 0
109 115 175 241 247 0
109 115 175 241 325 0
109 115 175 241 331 0
109 115 175 247 325 0
109 115 175 247 331 0
109 115 175 325 331 0
109 115 241 247 325 0
109 115 241 247 331 0
109 115 241 325 331 0
109 115 247 325 331 0
109 169 175 241 247 0
109 169 175 241 325 0
109 169 175 241 331 0
109 169 175 247 325 0
109 169 175 247 331 0
109 169 175 325 331 0
109 169 241 247 325 0
109 169 241 247 331 0
109 169 241 325 331 0
109 169 247 325 331 0
109 175 241 247 325 0
109 175 241 247 331 0
109 175 241 325 331 0
109 175 247 325 331 0
109 241 247 325 331 0
115 169 175 241 247 0
115 169 175 241 325 0
115 169 175 241 331 0
115 169 175 247 325 0
115 169 175 247 331 0
115 169 175 325 331 0
115 169 241 247 325 0
115 169 241 247 331 0
115 169 241 325 331 0
115 169 247 325 331 0
115 175 241 247 325 0
115 175 241 247 331 0
115 175 241 325 331 0
115 175 247 325 331 0
115 241 247 325 331 0
169 175 241 247 325 0
169 175 241 247 331 0
169 175 241 325 331 0
169 175 247 325 331 0
169 241 247 325 331 0
175 241 247 325 331 0
-114 -120 -174 -180 -246 0
-114 -120 -174 -180 -252 0
-114 -120 -174 -180 -330 0
-114 -120 -174 -180 -336 0
-114 -120 -174 -246 -252 0
-114 -120 -174 -246 -330 0
-114 -120 -174 -246 -336 0
-114 -120 -174 -252 -330 0
-114 -120 -174 -252 -336 0
-114 -120 -174 -330 -336 0
-114 -120 -180 -246 -252 0
-114 -120 -180 -246 -330 0
-114 -120 -180 -246 -336 0
-114 -120 -180 -252 -330 0
-114 -120 -180 -252 -336 0
-114 -120 -180 -330 -336 0
-114 -120 -246 -252 -330 0
-114 -120 -246 -252 -336 0
-114 -120 -246 -330 -336 0
-114 -120 -252 -330 -336 0
-114 -174 -180 -246 -252 0
-114 -174 -180 -246 -330 0
-114 -174 -180 -246 -336 0
-114 -174 -180 -252 -330 0
-114 -174 -180 -252 -336 0
-114 -174 -180 -330 -336 0
-114 -174 -246 -252 -330 0
-114 -174 -246 -252 -336 0
-114 -174 -246 -330 -336 0
-114 -174 -252 -330 -336 0
-114 -180 -246 -252 -330 0
-114 -180 -246 -252 -336 0
-114 -180 -246 -330 -336 0
-114 -180 -252 -330 -336 0
-114 -246 -252 -330 -336 0
-120 -174 -180 -246 -252 0
-120 -174 -180 -246 -330 0
-120 -174 -180 -246 -336 0
-120 -174 -180 -252 -330 0
-120 -174 -180 -252 -336 0
-120 -174 -180 -330 -336 0
-120 -174 -246 -252 -330 0
-120 -174 -246 -252 -336 0
-120 -174 -246 -330 -336 0
-120 -174 -252 -330 -336 0
-120 -180 -246 -252 -330 0
-120 -180 -246 -252 -336 0
-120 -180 -246 -330 -336 0
-120 -180 -252 -330 -336 0
-120 -246 -252 -330 -336 0
-174 -180 -246 -252 -330 0
-174 -180 -246 -252 -336 0
-174 -180 -246 -330 -336 0
-174 -180 -252 -330 -336 0
-174 -246 -252 -330 -336 0
-180 -246 -252 -330 -336 0
114 120 174 180 246 0
114 120 174 180 252 0
114 120 174 180 330 0
114 120 174 180 336 0
114 120 174 246 252 0
114 120 174 246 330 0
114 120 174 246 336 0
114 120 174 252 330 0
114 120 174 252 336 0
114 120 174 330 336 0
114 120 180 246 252 0
114 120 180 246 330 0
114 120 180 246 336 0
114 120 180 252 330 0
114 120 180 252 336 0
114 120 180 330 336 0
114 120 246 252 330 0
114 120 246 252 336 0
114 120 246 330 336 0
114 120 252 330 336 0
114 174 180 246 252 0
114 174 180 246 330 0
114 174 180 246 336 0
114 174 180 252 330 0
114 174 180 252 336 0
114 174 180 330 336 0
114 174 246 252 330 0
114 174 246 252 336 0
114 174 246 330 336 0
114 174 252 330 336 0
114 180 246 252 330 0
114 180 246 252 336 0
114 180 246 330 336 0
114 180 252 330 336 0
114 246 252 330 336 0
120 174 180 246 252 0
120 174 180 246 330 0
120 174 180 246 336 0
120 174 180 252 330 0
120 174 180 252 336 0
120 174 180 330 336 0
120 174 246 252 330 0
120 174 246 252 336 0
120 174 246 330 336 0
120 174 252 330 336 0
120 180 246 252 330 0
120 180 246 252 336 0
120 180 246 330 336 0
120 180 252 330 336 0
120 246 252 330 336 0
174 180 246 252 330 0
174 180 246 252 336 0
174 180 246 330 336 0
174 180 252 330 336 0
174 246 252 330 336 0
180 246 252 330 336 0
-635 -650 -785 0
-635 -650 -800 0
-635 -650 -965 0
-635 -650 -980 0
-635 -650 -1175 0
-635 -650 -1190 0
-635 -785 -800 0
-635 -785 -965 0
-635 -785 -980 0
-635 -785 -1175 0
-635 -785 -1190 0
-635 -800 -965 0
-635 -800 -980 0
-635 -800 -1175 0
-635 -800 -1190 0
-635 -965 -980 0
-635 -965 -1175 0
-635 -965 -1190 0
-635 -980 -1175 0
-635 -980 -1190 0
-635 -1175 -1190 0
-650 -785 -800 0
-650 -785 -965 0
-650 -785 -980 0
-650 -785 -1175 0
-650 -785 -1190 0
-650 -800 -965 0
-650 -800 -980 0
-650 -800 -1175 0
-650 -800 -1190 0
-650 -965 -980 0
-650 -965 -1175 0
-650 -965 -1190 0
-650 -980 -1175 0
-650 -980 -1190 0
-650 -1175 -1190 0
-785 -800 -965 0
-785 -800 -980 0
-785 -800 -1175 0
-785 -800 -1190 0
-785 -965 -980 0
-785 -965 -1175 0
-785 -965 -1190 0
-785 -980 -1175 0
-785 -980 -1190 0
-785 -1175 -1190 0
-800 -965 -980 0
-800 -965 -1175 0
-800 -965 -1190 0
-800 -980 -1175 0
-800 -980 -1190 0
-800 -1175 -1190 0
-965 -980 -1175 0
-965 -980 -1190 0
-965 -1175 -1190 0
-980 -1175 -1190 0
635 650 785 800 965 980 1175 0
635 650 785 800 965 980 1190 0
635 650 785 800 965 1175 1190 0
635 650 785 800 980 1175 1190 0
635 650 785 965 980 1175 1190 0
635 650 800 965 980 1175 1190 0
635 785 800 965 980 1175 1190 0
650 785 800 965 980 1175 1190 0
-49 -55 -61 0
-49 -55 -67 0
-49 -61 -67 0
-55 -61 -67 0
49 55 61 0
49 55 67 0
49 61 67 0
55 61 67 0
-54 -60 -66 0
-54 -60 -72 0
-54 -66 -72 0
-60 -66 -72 0
54 60 66 0
54 60 72 0
54 66 72 0
60 66 72 0
-485 -500 0
-485 -515 0
-485 -530 0
-500 -515 0
-500 -530 0
-515 -530 0
485 500 515 530 0
-326 -332 -350 0
-326 -332 -356 0
-326 -350 -356 0
-332 -350 -356 0
326 332 350 0
326 332 356 0
326 350 356 0
332 350 356 0
-327 -333 -351 0
-327 -333 -357 0
-327 -351 -357 0
-333 -351 -357 0
327 333 351 0
327 333 357 0
327 351 357 0
333 351 357 0
-1176 -1191 0
-1176 -1236 0
-1176 -1251 0
-1191 -1236 0
-1191 -1251 0
-1236 -1251 0
1176 1191 1236 1251 0
-50 -56 -74 -80 -170 0
-50 -56 -74 -80 -176 0
-50 -56 -74 -80 -278 0
-50 -56 -74 -80 -284 0
-50 -56 -74 -170 -176 0
-50 -56 -74 -170 -278 0
-50 -56 -74 -170 -284 0
-50 -56 -74 -176 -278 0
-50 -56 -74 -176 -284 0
-50 -56 -74 -278 -284 0
-50 -56 -80 -170 -176 0
-50 -56 -80 -170 -278 0
-50 -56 -80 -170 -284 0
-50 -56 -80 -176 -278 0
-50 -56 -80 -176 -284 0
-50 -56 -80 -278 -284 0
-50 -56 -170 -176 -278 0
-50 -56 -170 -176 -284 0
-50 -56 -170 -278 -284 0
-50 -56 -176 -278 -284 0
-50 -74 -80 -170 -176 0
-50 -74 -80 -170 -278 0
-50 -74 -80 -170 -284 0
-50 -74 -80 -176 -278 0
-50 -74 -80 -176 -284 0
-50 -74 -80 -278 -284 0
-50 -74 -170 -176 -278 0
-50 -74 -170 -176 -284 0
-50 -74 -170 -278 -284 0
-50 -74 -176 -278 -284 0
-50 -80 -170 -176 -278 0
-50 -80 -170 -176 -284 0
-50 -80 -170 -278 -284 0
-50 -80 -176 -278 -284 0
-50 -170 -176 -278 -284 0
-56 -74 -80 -170 -176 0
-56 -74 -80 -170 -278 0
-56 -74 -80 -170 -284 0
-56 -74 -80 -176 -278 0
-56 -74 -80 -176 -284 0
-56 -74 -80 -278 -284 0
-56 -74 -170 -176 -278 0
-56 -74 -170 -176 -284 0
-56 -74 -170 -278 -284 0
-56 -74 -176 -278 -284 0
-56 -80 -170 -176 -278 0
-56 -80 -170 -176 -284 0
-56 -80 -170 -278 -284 0
-56 -80 -176 -278 -284 0
-56 -170 -176 -278 -284 0
-74 -80 -170 -176 -278 0
-74 -80 -170 -176 -284 0
-74 -80 -170 -278 -284 0
-74 -80 -176 -278 -284 0
-74 -170 -176 -278 -284 0
-80 -170 -176 -278 -284 0
50 56 74 80 170 0
50 56 74 80 176 0
50 56 74 80 278 0
50 56 74 80 284 0
50 56 74 170 176 0
50 56 74 170 278 0
50 56 74 170 284 0
50 56 74 176 278 0
50 56 74 176 284 0
50 56 74 278 284 0
50 56 80 170 176 0
50 56 80 170 278 0
50 56 80 170 284 0
50 56 80 176 278 0
50 56 80 176 284 0
50 56 80 278 284 0
50 56 170 176 278 0
50 56 170 176 284 0
50 56 170 278 284 0
50 56 176 278 284 0
50 74 80 170 176 0
50 74 80 170 278 0
50 74 80 170 284 0
50 74 80 176 278 0
50 74 80 176 284 0
50 74 80 278 284 0
50 74 170 176 278 0
50 74 170 176 284 0
50 74 170 278 284 0
50 74 176 278 284 0
50 80 170 176 278 0
50 80 170 176 284 0
50 80 170 278 284 0
50 80 176 278 284 0
50 170 176 278 284 0
56 74 80 170 176 0
56 74 80 170 278 0
56 74 80 170 284 0
56 74 80 176 278 0
56 74 80 176 284 0
56 74 80 278 284 0
56 74 170 176 278 0
56 74 170 176 284 0
56 74 170 278 284 0
56 74 176 278 284 0
56 80 170 176 278 0
56 80 170 176 284 0
56 80 170 278 284 0
56 80 176 278 284 0
56 170 176 278 284 0
74 80 170 176 278 0
74 80 170 176 284 0
74 80 170 278 284 0
74 80 176 278 284 0
74 170 176 278 284 0
80 170 176 278 284 0
-51 -57 -75 -81 -171 0
-51 -57 -75 -81 -177 0
-51 -57 -75 -81 -279 0
-51 -57 -75 -81 -285 0
-51 -57 -75 -171 -177 0
-51 -57 -75 -171 -279 0
-51 -57 -75 -171 -285 0
-51 -57 -75 -177 -279 0
-51 -57 -75 -177 -285 0
-51 -57 -75 -279 -285 0
-51 -57 -81 -171 -177 0
-51 -57 -81 -171 -279 0
-51 -57 -81 -171 -285 0
-51 -57 -81 -177 -279 0
-51 -57 -81 -177 -285 0
-51 -57 -81 -279 -285 0
-51 -57 -171 -177 -279 0
-51 -57 -171 -177 -285 0
-51 -57 -171 -279 -285 0
-51 -57 -177 -279 -285 0
-51 -75 -81 -171 -177 0
-51 -75 -81 -171 -279 0
-51 -75 -81 -171 -285 0
-51 -75 -81 -177 -279 0
-51 -75 -81 -177 -285 0
-51 -75 -81 -279 -285 0
-51 -75 -171 -177 -279 0
-51 -75 -171 -177 -285 0
-51 -75 -171 -279 -285 0
-51 -75 -177 -279 -285 0
-51 -81 -171 -177 -279 0
-51 -81 -171 -177 -285 0
-51 -81 -171 -279 -285 0
-51 -81 -177 -279 -285 0
-51 -171 -177 -279 -285 0
-57 -75 -81 -171 -177 0
-57 -75 -81 -171 -279 0
-57 -75 -81 -171 -285 0
-57 -75 -81 -177 -279 0
-57 -75 -81 -177 -285 0
-57 -75 -81 -279 -285 0
-57 -75 -171 -177 -279 0
-57 -75 -171 -177 -285 0
-57 -75 -171 -279 -285 0
-57 -75 -177 -279 -285 0
-57 -81 -171 -177 -279 0
-57 -81 -171 -177 -285 0
-57 -81 -171 -279 -285 0
-57 -81 -177 -279 -285 0
-57 -171 -177 -279 -285 0
-75 -81 -171 -177 -279 0
-75 -81 -171 -177 -285 0
-75 -81 -171 -279 -285 0
-75 -81 -177 -279 -285 0
-75 -171 -177 -279 -285 0
-81 -171 -177 -279 -285 0
51 57 75 81 171 0
51 57 75 81 177 0
51 57 75 81 279 0
51 57 75 81 285 0
51 57 75 171 177 0
51 57 75 171 279 0
51 57 75 171 285 0
51 57 75 177 279 0
51 57 75 177 285 0
51 57 75 279 285 0
51 57 81 171 177 0
51 57 81 171 279 0
51 57 81 171 285 0
51 57 81 177 279 0
51 57 81 177 285 0
51 57 81 279 285 0
51 57 171 177 279 0
51 57 171 177 285 0
51 57 171 279 285 0
51 57 177 279 285 0
51 75 81 171 177 0
51 75 81 171 279 0
51 75 81 171 285 0
51 75 81 177 279 0
51 75 81 177 285 0
51 75 81 279 285 0
51 75 171 177 279 0
51 75 171 177 285 0
51 75 171 279 285 0
51 75 177 279 285 0
51 81 171 177 279 0
51 81 171 177 285 0
51 81 171 279 285 0
51 81 177 279 285 0
51 171 177 279 285 0
57 75 81 171 177 0
57 75 81 171 279 0
57 75 81 171 285 0
57 75 81 177 279 0
57 75 81 177 285 0
57 75 81 279 285 0
57 75 171 177 279 0
57 75 171 177 285 0
57 75 171 279 285 0
57 75 177 279 285 0
57 81 171 177 279 0
57 81 171 177 285 0
57 81 171 279 285 0
57 81 177 279 285 0
57 171 177 279 285 0
75 81 171 177 279 0
75 81 171 177 285 0
75 81 171 279 285 0
75 81 177 279 285 0
75 171 177 279 285 0
81 171 177 279 285 0
-486 -501 -546 0
-486 -501 -561 0
-486 -501 -786 0
-486 -501 -801 0
-486 -501 -1056 0
-486 -501 -1071 0
-486 -546 -561 0
-486 -546 -786 0
-486 -546 -801 0
-486 -546 -1056 0
-486 -546 -1071 0
-486 -561 -786 0
-486 -561 -801 0
-486 -561 -1056 0
-486 -561 -1071 0
-486 -786 -801 0
-486 -786 -1056 0
-486 -786 -1071 0
-486 -801 -1056 0
-486 -801 -1071 0
-486 -1056 -1071 0
-501 -546 -561 0
-501 -546 -786 0
-501 -546 -801 0
-501 -546 -1056 0
-501 -546 -1071 0
-501 -561 -786 0
-501 -561 -801 0
-501 -561 -1056 0
-501 -561 -1071 0
-501 -786 -801 0
-501 -786 -1056 0
-501 -786 -1071 0
-501 -801 -1056 0
-501 -801 -1071 0
-501 -1056 -1071 0
-546 -561 -786 0
-546 -561 -801 0
-546 -561 -1056 0
-546 -561 -1071 0
-546 -786 -801 0
-546 -786 -1056 0
-546 -786 -1071 0
-546 -801 -1056 0
-546 -801 -1071 0
-546 -1056 -1071 0
-561 -786 -801 0
-561 -786 -1056 0
-561 -786 -1071 0
-561 -801 -1056 0
-561 -801 -1071 0
-561 -1056 -1071 0
-786 -801 -1056 0
-786 -801 -1071 0
-786 -1056 -1071 0
-801 -1056 -1071 0
486 501 546 561 786 801 1056 0
486 501 546 561 786 801 1071 0
486 501 546 561 786 1056 1071 0
486 501 546 561 801 1056 1071 0
486 501 546 786 801 1056 1071 0
486 501 561 786 801 1056 1071 0
486 546 561 786 801 1056 1071 0
501 546 561 786 801 1056 1071 0
-26 -32 -86 -92 -194 0
-26 -32 -86 -92 -200 0
-26 -32 -86 -92 -254 0
-26 -32 -86 -92 -260 0
-26 -32 -86 -194 -200 0
-26 -32 -86 -194 -254 0
-26 -32 -86 -194 -260 0
-26 -32 -86 -200 -254 0
-26 -32 -86 -200 -260 0
-26 -32 -86 -254 -260 0
-26 -32 -92 -194 -200 0
-26 -32 -92 -194 -254 0
-26 -32 -92 -194 -260 0
-26 -32 -92 -200 -254 0
-26 -32 -92 -200 -260 0
-26 -32 -92 -254 -260 0
-26 -32 -194 -200 -254 0
-26 -32 -194 -200 -260 0
-26 -32 -194 -254 -260 0
-26 -32 -200 -254 -260 0
-26 -86 -92 -194 -200 0
-26 -86 -92 -194 -254 0
-26 -86 -92 -194 -260 0
-26 -86 -92 -200 -254 0
-26 -86 -92 -200 -260 0
-26 -86 -92 -254 -260 0
-26 -86 -194 -200 -254 0
-26 -86 -194 -200 -260 0
-26 -86 -194 -254 -260 0
-26 -86 -200 -254 -260 0
-26 -92 -194 -200 -254 0
-26 -92 -194 -200 -260 0
-26 -92 -194 -254 -260 0
-26 -92 -200 -254 -260 0
-26 -194 -200 -254 -260 0
-32 -86 -92 -194 -200 0
-32 -86 -92 -194 -254 0
-32 -86 -92 -194 -260 0
-32 -86 -92 -200 -254 0
-32 -86 -92 -200 -260 0
-32 -86 -92 -254 -260 0
-32 -86 -194 -200 -254 0
-32 -86 -194 -200 -260 0
-32 -86 -194 -254 -260 0
-32 -86 -200 -254 -260 0
-32 -92 -194 -200 -254 0
-32 -92 -194 -200 -260 0
-32 -92 -194 -254 -260 0
-32 -92 -200 -254 -260 0
-32 -194 -200 -254 -260 0
-86 -92 -194 -200 -254 0
-86 -92 -194 -200 -260 0
-86 -92 -194 -254 -260 0
-86 -92 -200 -254 -260 0
-86 -194 -200 -254 -260 0
-92 -194 -200 -254 -260 0
26 32 86 92 194 0
26 32 86 92 200 0
26 32 86 92 254 0
26 32 86 92 260 0
26 32 86 194 200 0
26 32 86 194 254 0
26 32 86 194 260 0
26 32 86 200 254 0
26 32 86 200 260 0
26 32 86 254 260 0
26 32 92 194 200 0
26 32 92 194 254 0
26 32 92 194 260 0
26 32 92 200 254 0
26 32 92 200 260 0
26 32 92 254 260 0
26 32 194 200 254 0
26 32 194 200 260 0
26 32 194 254 260 0
26 32 200 254 260 0
26 86 92 194 200 0
26 86 92 194 254 0
26 86 92 194 260 0
26 86 92 200 254 0
26 86 92 200 260 0
26 86 92 254 260 0
26 86 194 200 254 0
26 86 194 200 260 0
26 86 194 254 260 0
26 86 200 254 260 0
26 92 194 200 254 0
26 92 194 200 260 0
26 92 194 254 260 0
26 92 200 254 260 0
26 194 200 254 260 0
32 86 92 194 200 0
32 86 92 194 254 0
32 86 92 194 260 0
32 86 92 200 254 0
32 86 92 200 260 0
32 86 92 254 260 0
32 86 194 200 254 0
32 86 194 200 260 0
32 86 194 254 260 0
32 86 200 254 260 0
32 92 194 200 254 0
32 92 194 200 260 0
32 92 194 254 260 0
32 92 200 254 260 0
32 194 200 254 260 0
86 92 194 200 254 0
86 92 194 200 260 0
86 92 194 254 260 0
86 92 200 254 260 0
86 194 200 254 260 0
92 194 200 254 260 0
-27 -33 -87 -93 -195 0
-27 -33 -87 -93 -201 0
-27 -33 -87 -93 -255 0
-27 -33 -87 -93 -261 0
-27 -33 -87 -195 -201 0
-27 -33 -87 -195 -255 0
-27 -33 -87 -195 -261 0
-27 -33 -87 -201 -255 0
-27 -33 -87 -201 -261 0
-27 -33 -87 -255 -261 0
-27 -33 -93 -195 -201 0
-27 -33 -93 -195 -255 0
-27 -33 -93 -195 -261 0
-27 -33 -93 -201 -255 0
-27 -33 -93 -201 -261 0
-27 -33 -93 -255 -261 0
-27 -33 -195 -201 -255 0
-27 -33 -195 -201 -261 0
-27 -33 -195 -255 -261 0
-27 -33 -201 -255 -261 0
-27 -87 -93 -195 -201 0
-27 -87 -93 -195 -255 0
-27 -87 -93 -195 -261 0
-27 -87 -93 -201 -255 0
-27 -87 -93 -201 -261 0
-27 -87 -93 -255 -261 0
-27 -87 -195 -201 -255 0
-27 -87 -195 -201 -261 0
-27 -87 -195 -255 -261 0
-27 -87 -201 -255 -261 0
-27 -93 -195 -201 -255 0
-27 -93 -195 -201 -261 0
-27 -93 -195 -255 -261 0
-27 -93 -201 -255 -261 0
-27 -195 -201 -255 -261 0
-33 -87 -93 -195 -201 0
-33 -87 -93 -195 -255 0
-33 -87 -93 -195 -261 0
-33 -87 -93 -201 -255 0
-33 -87 -93 -201 -261 0
-33 -87 -93 -255 -261 0
-33 -87 -195 -201 -255 0
-33 -87 -195 -201 -261 0
-33 -87 -195 -255 -261 0
-33 -87 -201 -255 -261 0
-33 -93 -195 -201 -255 0
-33 -93 -195 -201 -261 0
-33 -93 -195 -255 -261 0
-33 -93 -201 -255 -261 0
-33 -195 -201 -255 -261 0
-87 -93 -195 -201 -255 0
-87 -93 -195 -201 -261 0
-87 -93 -195 -255 -261 0
-87 -93 -201 -255 -261 0
-87 -195 -201 -255 -261 0
-93 -195 -201 -255 -261 0
27 33 87 93 195 0
27 33 87 93 201 0
27 33 87 93 255 0
27 33 87 93 261 0
27 33 87 195 201 0
27 33 87 195 255 0
27 33 87 195 261 0
27 33 87 201 255 0
27 33 87 201 261 0
27 33 87 255 261 0
27 33 93 195 201 0
27 33 93 195 255 0
27 33 93 195 261 0
27 33 93 201 255 0
27 33 93 201 261 0
27 33 93 255 261 0
27 33 195 201 255 0
27 33 195 201 261 0
27 33 195 255 261 0
27 33 201 255 261 0
27 87 93 195 201 0
27 87 93 195 255 0
27 87 93 195 261 0
27 87 93 201 255 0
27 87 93 201 261 0
27 87 93 255 261 0
27 87 195 201 255 0
27 87 195 201 261 0
27 87 195 255 261 0
27 87 201 255 261 0
27 93 195 201 255 0
27 93 195 201 261 0
27 93 195 255 261 0
27 93 201 255 261 0
27 195 201 255 261 0
33 87 93 195 201 0
33 87 93 195 255 0
33 87 93 195 261 0
33 87 93 201 255 0
33 87 93 201 261 0
33 87 93 255 261 0
33 87 195 201 255 0
33 87 195 201 261 0
33 87 195 255 261 0
33 87 201 255 261 0
33 93 195 201 255 0
33 93 195 201 261 0
33 93 195 255 261 0
33 93 201 255 261 0
33 195 201 255 261 0
87 93 195 201 255 0
87 93 195 201 261 0
87 93 195 255 261 0
87 93 201 255 261 0
87 195 201 255 261 0
93 195 201 255 261 0
-426 -441 -576 0
-426 -441 -591 0
-426 -441 -846 0
-426 -441 -861 0
-426 -441 -996 0
-426 -441 -1011 0
-426 -576 -591 0
-426 -576 -846 0
-426 -576 -861 0
-426 -576 -996 0
-426 -576 -1011 0
-426 -591 -846 0
-426 -591 -861 0
-426 -591 -996 0
-426 -591 -1011 0
-426 -846 -861 0
-426 -846 -996 0
-426 -846 -1011 0
-426 -861 -996 0
-426 -861 -1011 0
-426 -996 -1011 0
-441 -576 -591 0
-441 -576 -846 0
-441 -576 -861 0
-441 -576 -996 0
-441 -576 -1011 0
-441 -591 -846 0
-441 -591 -861 0
-441 -591 -996 0
-441 -591 -1011 0
-441 -846 -861 0
-441 -846 -996 0
-441 -846 -1011 0
-441 -861 -996 0
-441 -861 -1011 0
-441 -996 -1011 0
-576 -591 -846 0
-576 -591 -861 0
-576 -591 -996 0
-576 -591 -1011 0
-576 -846 -861 0
-576 -846 -996 0
-576 -846 -1011 0
-576 -861 -996 0
-576 -861 -1011 0
-576 -996 -1011 0
-591 -846 -861 0
-591 -846 -996 0
-591 -846 -1011 0
-591 -861 -996 0
-591 -861 -1011 0
-591 -996 -1011 0
-846 -861 -996 0
-846 -861 -1011 0
-846 -996 -1011 0
-861 -996 -1011 0
426 441 576 591 846 861 996 0
426 441 576 591 846 861 1011 0
426 441 576 591 846 996 1011 0
426 441 576 591 861 996 1011 0
426 441 576 846 861 996 1011 0
426 441 591 846 861 996 1011 0
426 576 591 846 861 996 1011 0
441 576 591 846 861 996 1011 0
-62 -68 -98 -104 -146 0
-62 -68 -98 -104 -152 0
-62 -68 -98 -104 -266 0
-62 -68 -98 -104 -272 0
-62 -68 -98 -146 -152 0
-62 -68 -98 -146 -266 0
-62 -68 -98 -146 -272 0
-62 -68 -98 -152 -266 0
-62 -68 -98 -152 -272 0
-62 -68 -98 -266 -272 0
-62 -68 -104 -146 -152 0
-62 -68 -104 -146 -266 0
-62 -68 -104 -146 -272 0
-62 -68 -104 -152 -266 0
-62 -68 -104 -152 -272 0
-62 -68 -104 -266 -272 0
-62 -68 -146 -152 -266 0
-62 -68 -146 -152 -272 0
-62 -68 -146 -266 -272 0
-62 -68 -152 -266 -272 0
-62 -98 -104 -146 -152 0
-62 -98 -104 -146 -266 0
-62 -98 -104 -146 -272 0
-62 -98 -104 -152 -266 0
-62 -98 -104 -152 -272 0
-62 -98 -104 -266 -272 0
-62 -98 -146 -152 -266 0
-62 -98 -146 -152 -272 0
-62 -98 -146 -266 -272 0
-62 -98 -152 -266 -272 0
-62 -104 -146 -152 -266 0
-62 -104 -146 -152 -272 0
-62 -104 -146 -266 -272 0
-62 -104 -152 -266 -272 0
-62 -146 -152 -266 -272 0
-68 -98 -104 -146 -152 0
-68 -98 -104 -146 -266 0
-68 -98 -104 -146 -272 0
-68 -98 -104 -152 -266 0
-68 -98 -104 -152 -272 0
-68 -98 -104 -266 -272 0
-68 -98 -146 -152 -266 0
-68 -98 -146 -152 -272 0
-68 -98 -146 -266 -272 0
-68 -98 -152 -266 -272 0
-68 -104 -146 -152 -266 0
-68 -104 -146 -152 -272 0
-68 -104 -146 -266 -272 0
-68 -104 -152 -266 -272 0
-68 -146 -152 -266 -272 0
-98 -104 -146 -152 -266 0
-98 -104 -146 -152 -272 0
-98 -104 -146 -266 -272 0
-98 -104 -152 -266 -272 0
-98 -146 -152 -266 -272 0
-104 -146 -152 -266 -272 0
62 68 98 104 146 0
62 68 98 104 152 0
62 68 98 104 266 0
62 68 98 104 272 0
62 68 98 146 152 0
62 68 98 146 266 0
62 68 98 146 272 0
62 68 98 152 266 0
62 68 98 152 272 0
62 68 98 266 272 0
62 68 104 146 152 0
62 68 104 146 266 0
62 68 104 146 272 0
62 68 104 152 266 0
62 68 104 152 272 0
62 68 104 266 272 0
62 68 146 152 266 0
62 68 146 152 272 0
62 68 146 266 272 0
62 68 152 266 272 0
62 98 104 146 152 0
62 98 104 146 266 0
62 98 104 146 272 0
62 98 104 152 266 0
62 98 104 152 272 0
62 98 104 266 272 0
62 98 146 152 266 0
62 98 146 152 272 0
62 98 146 266 272 0
62 98 152 266 272 0
62 104 146 152 266 0
62 104 146 152 272 0
62 104 146 266 272 0
62 104 152 266 272 0
62 146 152 266 272 0
68 98 104 146 152 0
68 98 104 146 266 0
68 98 104 146 272 0
68 98 104 152 266 0
68 98 104 152 272 0
68 98 104 266 272 0
68 98 146 152 266 0
68 98 146 152 272 0
68 98 146 266 272 0
68 98 152 266 272 0
68 104 146 152 266 0
68 104 146 152 272 0
68 104 146 266 272 0
68 104 152 266 272 0
68 146 152 266 272 0
98 104 146 152 266 0
98 104 146 152 272 0
98 104 146 266 272 0
98 104 152 266 272 0
98 146 152 266 272 0
104 146 152 266 272 0
-63 -69 -99 -105 -147 0
-63 -69 -99 -105 -153 0
-63 -69 -99 -105 -267 0
-63 -69 -99 -105 -273 0
-63 -69 -99 -147 -153 0
-63 -69 -99 -147 -267 0
-63 -69 -99 -147 -273 0
-63 -69 -99 -153 -267 0
-63 -69 -99 -153 -273 0
-63 -69 -99 -267 -273 0
-63 -69 -105 -147 -153 0
-63 -69 -105 -147 -267 0
-63 -69 -105 -147 -273 0
-63 -69 -105 -153 -267 0
-63 -69 -105 -153 -273 0
-63 -69 -105 -267 -273 0
-63 -69 -147 -153 -267 0
-63 -69 -147 -153 -273 0
-63 -69 -147 -267 -273 0
-63 -69 -153 -267 -273 0
-63 -99 -105 -147 -153 0
-63 -99 -105 -147 -267 0
-63 -99 -105 -147 -273 0
-63 -99 -105 -153 -267 0
-63 -99 -105 -153 -273 0
-63 -99 -105 -267 -273 0
-63 -99 -147 -153 -267 0
-63 -99 -147 -153 -273 0
-63 -99 -147 -267 -273 0
-63 -99 -153 -267 -273 0
-63 -105 -147 -153 -267 0
-63 -105 -147 -153 -273 0
-63 -105 -147 -267 -273 0
-63 -105 -153 -267 -273 0
-63 -147 -153 -267 -273 0
-69 -99 -105 -147 -153 0
-69 -99 -105 -147 -267 0
-69 -99 -105 -147 -273 0
-69 -99 -105 -153 -267 0
-69 -99 -105 -153 -273 0
-69 -99 -105 -267 -273 0
-69 -99 -147 -153 -267 0
-69 -99 -147 -153 -273 0
-69 -99 -147 -267 -273 0
-69 -99 -153 -267 -273 0
-69 -105 -147 -153 -267 0
-69 -105 -147 -153 -273 0
-69 -105 -147 -267 -273 0
-69 -105 -153 -267 -273 0
-69 -147 -153 -267 -273 0
-99 -105 -147 -153 -267 0
-99 -105 -147 -153 -273 0
-99 -105 -147 -267 -273 0
-99 -105 -153 -267 -273 0
-99 -147 -153 -267 -273 0
-105 -147 -153 -267 -273 0
63 69 99 105 147 0
63 69 99 105 153 0
63 69 99 105 267 0
63 69 99 105 273 0
63 69 99 147 153 0
63 69 99 147 267 0
63 69 99 147 273 0
63 69 99 153 267 0
63 69 99 153 273 0
63 69 99 267 273 0
63 69 105 147 153 0
63 69 105 147 267 0
63 69 105 147 273 0
63 69 105 153 267 0
63 69 105 153 273 0
63 69 105 267 273 0
63 69 147 153 267 0
63 69 147 153 273 0
63 69 147 267 273 0
63 69 153 267 273 0
63 99 105 147 153 0
63 99 105 147 267 0
63 99 105 147 273 0
63 99 105 153 267 0
63 99 105 153 273 0
63 99 105 267 273 0
63 99 147 153 267 0
63 99 147 153 273 0
63 99 147 267 273 0
63 99 153 267 273 0
63 105 147 153 267 0
63 105 147 153 273 0
63 105 147 267 273 0
63 105 153 267 273 0
63 147 153 267 273 0
69 99 105 147 153 0
69 99 105 147 267 0
69 99 105 147 273 0
69 99 105 153 267 0
69 99 105 153 273 0
69 99 105 267 273 0
69 99 147 153 267 0
69 99 147 153 273 0
69 99 147 267 273 0
69 99 153 267 273 0
69 105 147 153 267 0
69 105 147 153 273 0
69 105 147 267 273 0
69 105 153 267 273 0
69 147 153 267 273 0
99 105 147 153 267 0
99 105 147 153 273 0
99 105 147 267 273 0
99 105 153 267 273 0
99 147 153 267 273 0
105 147 153 267 273 0
-516 -531 -606 0
-516 -531 -621 0
-516 -531 -726 0
-516 -531 -741 0
-516 -531 -1026 0
-516 -531 -1041 0
-516 -606 -621 0
-516 -606 -726 0
-516 -606 -741 0
-516 -606 -1026 0
-516 -606 -1041 0
-516 -621 -726 0
-516 -621 -741 0
-516 -621 -1026 0
-516 -621 -1041 0
-516 -726 -741 0
-516 -726 -1026 0
-516 -726 -1041 0
-516 -741 -1026 0
-516 -741 -1041 0
-516 -1026 -1041 0
-531 -606 -621 0
-531 -606 -726 0
-531 -606 -741 0
-531 -606 -1026 0
-531 -606 -1041 0
-531 -621 -726 0
-531 -621 -741 0
-531 -621 -1026 0
-531 -621 -1041 0
-531 -726 -741 0
-531 -726 -1026 0
-531 -726 -1041 0
-531 -741 -1026 0
-531 -741 -1041 0
-531 -1026 -1041 0
-606 -621 -726 0
-606 -621 -741 0
-606 -621 -1026 0
-606 -621 -1041 0
-606 -726 -741 0
-606 -726 -1026 0
-606 -726 -1041 0
-606 -741 -1026 0
-606 -741 -1041 0
-606 -1026 -1041 0
-621 -726 -741 0
-621 -726 -1026 0
-621 -726 -1041 0
-621 -741 -1026 0
-621 -741 -1041 0
-621 -1026 -1041 0
-726 -741 -1026 0
-726 -741 -1041 0
-726 -1026 -1041 0
-741 -1026 -1041 0
516 531 606 621 726 741 1026 0
516 531 606 621 726 741 1041 0
516 531 606 621 726 1026 1041 0
516 531 606 621 741 1026 1041 0
516 531 606 726 741 1026 1041 0
516 531 621 726 741 1026 1041 0
516 606 621 726 741 1026 1041 0
531 606 621 726 741 1026 1041 0
-302 -308 -338 0
-302 -308 -344 0
-302 -338 -344 0
-308 -338 -344 0
302 308 338 0
302 308 344 0
302 338 344 0
308 338 344 0
-303 -309 -339 0
-303 -309 -345 0
-303 -339 -345 0
-309 -339 -345 0
303 309 339 0
303 309 345 0
303 339 345 0
309 339 345 0
-1116 -1131 0
-1116 -1206 0
-1116 -1221 0
-1131 -1206 0
-1131 -1221 0
-1206 -1221 0
1116 1131 1206 1221 0
-2 -8 -110 -116 -206 0
-2 -8 -110 -116 -212 0
-2 -8 -110 -116 -230 0
-2 -8 -110 -116 -236 0
-2 -8 -110 -206 -212 0
-2 -8 -110 -206 -230 0
-2 -8 -110 -206 -236 0
-2 -8 -110 -212 -230 0
-2 -8 -110 -212 -236 0
-2 -8 -110 -230 -236 0
-2 -8 -116 -206 -212 0
-2 -8 -116 -206 -230 0
-2 -8 -116 -206 -236 0
-2 -8 -116 -212 -230 0
-2 -8 -116 -212 -236 0
-2 -8 -116 -230 -236 0
-2 -8 -206 -212 -230 0
-2 -8 -206 -212 -236 0
-2 -8 -206 -230 -236 0
-2 -8 -212 -230 -236 0
-2 -110 -116 -206 -212 0
-2 -110 -116 -206 -230 0
-2 -110 -116 -206 -236 0
-2 -110 -116 -212 -230 0
-2 -110 -116 -212 -236 0
-2 -110 -116 -230 -236 0
-2 -110 -206 -212 -230 0
-2 -110 -206 -212 -236 0
-2 -110 -206 -230 -236 0
-2 -110 -212 -230 -236 0
-2 -116 -206 -212 -230 0
-2 -116 -206 -212 -236 0
-2 -116 -206 -230 -236 0
-2 -116 -212 -230 -236 0
-2 -206 -212 -230 -236 0
-8 -110 -116 -206 -212 0
-8 -110 -116 -206 -230 0
-8 -110 -116 -206 -236 0
-8 -110 -116 -212 -230 0
-8 -110 -116 -212 -236 0
-8 -110 -116 -230 -236 0
-8 -110 -206 -212 -230 0
-8 -110 -206 -212 -236 0
-8 -110 -206 -230 -236 0
-8 -110 -212 -230 -236 0
-8 -116 -206 -212 -230 0
-8 -116 -206 -212 -236 0
-8 -116 -206 -230 -236 0
-8 -116 -212 -230 -236 0
-8 -206 -212 -230 -236 0
-110 -116 -206 -212 -230 0
-110 -116 -206 -212 -236 0
-110 -116 -206 -230 -236 0
-110 -116 -212 -230 -236 0
-110 -206 -212 -230 -236 0
-116 -206 -212 -230 -236 0
2 8 110 116 206 0
2 8 110 116 212 0
2 8 110 116 230 0
2 8 110 116 236 0
2 8 110 206 212 0
2 8 110 206 230 0
2 8 110 206 236 0
2 8 110 212 230 0
2 8 110 212 236 0
2 8 110 230 236 0
2 8 116 206 212 0
2 8 116 206 230 0
2 8 116 206 236 0
2 8 116 212 230 0
2 8 116 212 236 0
2 8 116 230 236 0
2 8 206 212 230 0
2 8 206 212 236 0
2 8 206 230 236 0
2 8 212 230 236 0
2 110 116 206 212 0
2 110 116 206 230 0
2 110 116 206 236 0
2 110 116 212 230 0
2 110 116 212 236 0
2 110 116 230 236 0
2 110 206 212 230 0
2 110 206 212 236 0
2 110 206 230 236 0
2 110 212 230 236 0
2 116 206 212 230 0
2 116 206 212 236 0
2 116 206 230 236 0
2 116 212 230 236 0
2 206 212 230 236 0
8 110 116 206 212 0
8 110 116 206 230 0
8 110 116 206 236 0
8 110 116 212 230 0
8 110 116 212 236 0
8 110 116 230 236 0
8 110 206 212 230 0
8 110 206 212 236 0
8 110 206 230 236 0
8 110 212 230 236 0
8 116 206 212 230 0
8 116 206 212 236 0
8 116 206 230 236 0
8 116 212 230 236 0
8 206 212 230 236 0
110 116 206 212 230 0
110 116 206 212 236 0
110 116 206 230 236 0
110 116 212 230 236 0
110 206 212 230 236 0
116 206 212 230 236 0
-3 -9 -111 -117 -207 0
-3 -9 -111 -117 -213 0
-3 -9 -111 -117 -231 0
-3 -9 -111 -117 -237 0
-3 -9 -111 -207 -213 0
-3 -9 -111 -207 -231 0
-3 -9 -111 -207 -237 0
-3 -9 -111 -213 -231 0
-3 -9 -111 -213 -237 0
-3 -9 -111 -231 -237 0
-3 -9 -117 -207 -213 0
-3 -9 -117 -207 -231 0
-3 -9 -117 -207 -237 0
-3 -9 -117 -213 -231 0
-3 -9 -117 -213 -237 0
-3 -9 -117 -231 -237 0
-3 -9 -207 -213 -231 0
-3 -9 -207 -213 -237 0
-3 -9 -207 -231 -237 0
-3 -9 -213 -231 -237 0
-3 -111 -117 -207 -213 0
-3 -111 -117 -207 -231 0
-3 -111 -117 -207 -237 0
-3 -111 -117 -213 -231 0
-3 -111 -117 -213 -237 0
-3 -111 -117 -231 -237 0
-3 -111 -207 -213 -231 0
-3 -111 -207 -213 -237 0
-3 -111 -207 -231 -237 0
-3 -111 -213 -231 -237 0
-3 -117 -207 -213 -231 0
-3 -117 -207 -213 -237 0
-3 -117 -207 -231 -237 0
-3 -117 -213 -231 -237 0
-3 -207 -213 -231 -237 0
-9 -111 -117 -207 -213 0
-9 -111 -117 -207 -231 0
-9 -111 -117 -207 -237 0
-9 -111 -117 -213 -231 0
-9 -111 -117 -213 -237 0
-9 -111 -117 -231 -237 0
-9 -111 -207 -213 -231 0
-9 -111 -207 -213 -237 0
-9 -111 -207 -231 -237 0
-9 -111 -213 -231 -237 0
-9 -117 -207 -213 -231 0
-9 -117 -207 -213 -237 0
-9 -117 -207 -231 -237 0
-9 -117 -213 -231 -237 0
-9 -207 -213 -231 -237 0
-111 -117 -207 -213 -231 0
-111 -117 -207 -213 -237 0
-111 -117 -207 -231 -237 0
-111 -117 -213 -231 -237 0
-111 -207 -213 -231 -237 0
-117 -207 -213 -231 -237 0
3 9 111 117 207 0
3 9 111 117 213 0
3 9 111 117 231 0
3 9 111 117 237 0
3 9 111 207 213 0
3 9 111 207 231 0
3 9 111 207 237 0
3 9 111 213 231 0
3 9 111 213 237 0
3 9 111 231 237 0
3 9 117 207 213 0
3 9 117 207 231 0
3 9 117 207 237 0
3 9 117 213 231 0
3 9 117 213 237 0
3 9 117 231 237 0
3 9 207 213 231 0
3 9 207 213 237 0
3 9 207 231 237 0
3 9 213 231 237 0
3 111 117 207 213 0
3 111 117 207 231 0
3 111 117 207 237 0
3 111 117 213 231 0
3 111 117 213 237 0
3 111 117 231 237 0
3 111 207 213 231 0
3 111 207 213 237 0
3 111 207 231 237 0
3 111 213 231 237 0
3 117 207 213 231 0
3 117 207 213 237 0
3 117 207 231 237 0
3 117 213 231 237 0
3 207 213 231 237 0
9 111 117 207 213 0
9 111 117 207 231 0
9 111 117 207 237 0
9 111 117 213 231 0
9 111 117 213 237 0
9 111 117 231 237 0
9 111 207 213 231 0
9 111 207 213 237 0
9 111 207 231 237 0
9 111 213 231 237 0
9 117 207 213 231 0
9 117 207 213 237 0
9 117 207 231 237 0
9 117 213 231 237 0
9 207 213 231 237 0
111 117 207 213 231 0
111 117 207 213 237 0
111 117 207 231 237 0
111 117 213 231 237 0
111 207 213 231 237 0
117 207 213 231 237 0
-366 -381 -636 0
-366 -381 -651 0
-366 -381 -876 0
-366 -381 -891 0
-366 -381 -936 0
-366 -381 -951 0
-366 -636 -651 0
-366 -636 -876 0
-366 -636 -891 0
-366 -636 -936 0
-366 -636 -951 0
-366 -651 -876 0
-366 -651 -891 0
-366 -651 -936 0
-366 -651 -951 0
-366 -876 -891 0
-366 -876 -936 0
-366 -876 -951 0
-366 -891 -936 0
-366 -891 -951 0
-366 -936 -951 0
-381 -636 -651 0
-381 -636 -876 0
-381 -636 -891 0
-381 -636 -936 0
-381 -636 -951 0
-381 -651 -876 0
-381 -651 -891 0
-381 -651 -936 0
-381 -651 -951 0
-381 -876 -891 0
-381 -876 -936 0
-381 -876 -951 0
-381 -891 -936 0
-381 -891 -951 0
-381 -936 -951 0
-636 -651 -876 0
-636 -651 -891 0
-636 -651 -936 0
-636 -651 -951 0
-636 -876 -891 0
-636 -876 -936 0
-636 -876 -951 0
-636 -891 -936 0
-636 -891 -951 0
-636 -936 -951 0
-651 -876 -891 0
-651 -876 -936 0
-651 -876 -951 0
-651 -891 -936 0
-651 -891 -951 0
-651 -936 -951 0
-876 -891 -936 0
-876 -891 -951 0
-876 -936 -951 0
-891 -936 -951 0
366 381 636 651 876 891 936 0
366 381 636 651 876 891 951 0
366 381 636 651 876 936 951 0
366 381 636 651 891 936 951 0
366 381 636 876 891 936 951 0
366 381 651 876 891 936 951 0
366 636 651 876 891 936 951 0
381 636 651 876 891 936 951 0
-38 -44 -122 -128 -158 0
-38 -44 -122 -128 -164 0
-38 -44 -122 -128 -242 0
-38 -44 -122 -128 -248 0
-38 -44 -122 -158 -164 0
-38 -44 -122 -158 -242 0
-38 -44 -122 -158 -248 0
-38 -44 -122 -164 -242 0
-38 -44 -122 -164 -248 0
-38 -44 -122 -242 -248 0
-38 -44 -128 -158 -164 0
-38 -44 -128 -158 -242 0
-38 -44 -128 -158 -248 0
-38 -44 -128 -164 -242 0
-38 -44 -128 -164 -248 0
-38 -44 -128 -242 -248 0
-38 -44 -158 -164 -242 0
-38 -44 -158 -164 -248 0
-38 -44 -158 -242 -248 0
-38 -44 -164 -242 -248 0
-38 -122 -128 -158 -164 0
-38 -122 -128 -158 -242 0
-38 -122 -128 -158 -248 0
-38 -122 -128 -164 -242 0
-38 -122 -128 -164 -248 0
-38 -122 -128 -242 -248 0
-38 -122 -158 -164 -242 0
-38 -122 -158 -164 -248 0
-38 -122 -158 -242 -248 0
-38 -122 -164 -242 -248 0
-38 -128 -158 -164 -242 0
-38 -128 -158 -164 -248 0
-38 -128 -158 -242 -248 0
-38 -128 -164 -242 -248 0
-38 -158 -164 -242 -248 0
-44 -122 -128 -158 -164 0
-44 -122 -128 -158 -242 0
-44 -122 -128 -158 -248 0
-44 -122 -128 -164 -242 0
-44 -122 -128 -164 -248 0
-44 -122 -128 -242 -248 0
-44 -122 -158 -164 -242 0
-44 -122 -158 -164 -248 0
-44 -122 -158 -242 -248 0
-44 -122 -164 -242 -248 0
-44 -128 -158 -164 -242 0
-44 -128 -158 -164 -248 0
-44 -128 -158 -242 -248 0
-44 -128 -164 -242 -248 0
-44 -158 -164 -242 -248 0
-122 -128 -158 -164 -242 0
-122 -128 -158 -164 -248 0
-122 -128 -158 -242 -248 0
-122 -128 -164 -242 -248 0
-122 -158 -164 -242 -248 0
-128 -158 -164 -242 -248 0
38 44 122 128 158 0
38 44 122 128 164 0
38 44 122 128 242 0
38 44 122 128 248 0
38 44 122 158 164 0
38 44 122 158 242 0
38 44 122 158 248 0
38 44 122 164 242 0
38 44 122 164 248 0
38 44 122 242 248 0
38 44 128 158 164 0
38 44 128 158 242 0
38 44 128 158 248 0
38 44 128 164 242 0
38 44 128 164 248 0
38 44 128 242 248 0
38 44 158 164 242 0
38 44 158 164 248 0
38 44 158 242 248 0
38 44 164 242 248 0
38 122 128 158 164 0
38 122 128 158 242 0
38 122 128 158 248 0
38 122 128 164 242 0
38 122 128 164 248 0
38 122 128 242 248 0
38 122 158 164 242 0
38 122 158 164 248 0
38 122 158 242 248 0
38 122 164 242 248 0
38 128 158 164 242 0
38 128 158 164 248 0
38 128 158 242 248 0
38 128 164 242 248 0
38 158 164 242 248 0
44 122 128 158 164 0
44 122 128 158 242 0
44 122 128 158 248 0
44 122 128 164 242 0
44 122 128 164 248 0
44 122 128 242 248 0
44 122 158 164 242 0
44 122 158 164 248 0
44 122 158 242 248 0
44 122 164 242 248 0
44 128 158 164 242 0
44 128 158 164 248 0
44 128 158 242 248 0
44 128 164 242 248 0
44 158 164 242 248 0
122 128 158 164 242 0
122 128 158 164 248 0
122 128 158 242 248 0
122 128 164 242 248 0
122 158 164 242 248 0
128 158 164 242 248 0
-39 -45 -123 -129 -159 0
-39 -45 -123 -129 -165 0
-39 -45 -123 -129 -243 0
-39 -45 -123 -129 -249 0
-39 -45 -123 -159 -165 0
-39 -45 -123 -159 -243 0
-39 -45 -123 -159 -249 0
-39 -45 -123 -165 -243 0
-39 -45 -123 -165 -249 0
-39 -45 -123 -243 -249 0
-39 -45 -129 -159 -165 0
-39 -45 -129 -159 -243 0
-39 -45 -129 -159 -249 0
-39 -45 -129 -165 -243 0
-39 -45 -129 -165 -249 0
-39 -45 -129 -243 -249 0
-39 -45 -159 -165 -243 0
-39 -45 -159 -165 -249 0
-39 -45 -159 -243 -249 0
-39 -45 -165 -243 -249 0
-39 -123 -129 -159 -165 0
-39 -123 -129 -159 -243 0
-39 -123 -129 -159 -249 0
-39 -123 -129 -165 -243 0
-39 -123 -129 -165 -249 0
-39 -123 -129 -243 -249 0
-39 -123 -159 -165 -243 0
-39 -123 -159 -165 -249 0
-39 -123 -159 -243 -249 0
-39 -123 -165 -243 -249 0
-39 -129 -159 -165 -243 0
-39 -129 -159 -165 -249 0
-39 -129 -159 -243 -249 0
-39 -129 -165 -243 -249 0
-39 -159 -165 -243 -249 0
-45 -123 -129 -159 -165 0
-45 -123 -129 -159 -243 0
-45 -123 -129 -159 -249 0
-45 -123 -129 -165 -243 0
-45 -123 -129 -165 -249 0
-45 -123 -129 -243 -249 0
-45 -123 -159 -165 -243 0
-45 -123 -159 -165 -249 0
-45 -123 -159 -243 -249 0
-45 -123 -165 -243 -249 0
-45 -129 -159 -165 -243 0
-45 -129 -159 -165 -249 0
-45 -129 -159 -243 -249 0
-45 -129 -165 -243 -249 0
-45 -159 -165 -243 -249 0
-123 -129 -159 -165 -243 0
-123 -129 -159 -165 -249 0
-123 -129 -159 -243 -249 0
-123 -129 -165 -243 -249 0
-123 -159 -165 -243 -249 0
-129 -159 -165 -243 -249 0
39 45 123 129 159 0
39 45 123 129 165 0
39 45 123 129 243 0
39 45 123 129 249 0
39 45 123 159 165 0
39 45 123 159 243 0
39 45 123 159 249 0
39 45 123 165 243 0
39 45 123 165 249 0
39 45 123 243 249 0
39 45 129 159 165 0
39 45 129 159 243 0
39 45 129 159 249 0
39 45 129 165 243 0
39 45 129 165 249 0
39 45 129 243 249 0
39 45 159 165 243 0
39 45 159 165 249 0
39 45 159 243 249 0
39 45 165 243 249 0
39 123 129 159 165 0
39 123 129 159 243 0
39 123 129 159 249 0
39 123 129 165 243 0
39 123 129 165 249 0
39 123 129 243 249 0
39 123 159 165 243 0
39 123 159 165 249 0
39 123 159 243 249 0
39 123 165 243 249 0
39 129 159 165 243 0
39 129 159 165 249 0
39 129 159 243 249 0
39 129 165 243 249 0
39 159 165 243 249 0
45 123 129 159 165 0
45 123 129 159 243 0
45 123 129 159 249 0
45 123 129 165 243 0
45 123 129 165 249 0
45 123 129 243 249 0
45 123 159 165 243 0
45 123 159 165 249 0
45 123 159 243 249 0
45 123 165 243 249 0
45 129 159 165 243 0
45 129 159 165 249 0
45 129 159 243 249 0
45 129 165 243 249 0
45 159 165 243 249 0
123 129 159 165 243 0
123 129 159 165 249 0
123 129 159 243 249 0
123 129 165 243 249 0
123 159 165 243 249 0
129 159 165 243 249 0
-456 -471 -666 0
-456 -471 -681 0
-456 -471 -756 0
-456 -471 -771 0
-456 -471 -966 0
-456 -471 -981 0
-456 -666 -681 0
-456 -666 -756 0
-456 -666 -771 0
-456 -666 -966 0
-456 -666 -981 0
-456 -681 -756 0
-456 -681 -771 0
-456 -681 -966 0
-456 -681 -981 0
-456 -756 -771 0
-456 -756 -966 0
-456 -756 -981 0
-456 -771 -966 0
-456 -771 -981 0
-456 -966 -981 0
-471 -666 -681 0
-471 -666 -756 0
-471 -666 -771 0
-471 -666 -966 0
-471 -666 -981 0
-471 -681 -756 0
-471 -681 -771 0
-471 -681 -966 0
-471 -681 -981 0
-471 -756 -771 0
-471 -756 -966 0
-471 -756 -981 0
-471 -771 -966 0
-471 -771 -981 0
-471 -966 -981 0
-666 -681 -756 0
-666 -681 -771 0
-666 -681 -966 0
-666 -681 -981 0
-666 -756 -771 0
-666 -756 -966 0
-666 -756 -981 0
-666 -771 -966 0
-666 -771 -981 0
-666 -966 -981 0
-681 -756 -771 0
-681 -756 -966 0
-681 -756 -981 0
-681 -771 -966 0
-681 -771 -981 0
-681 -966 -981 0
-756 -771 -966 0
-756 -771 -981 0
-756 -966 -981 0
-771 -966 -981 0
456 471 666 681 756 771 966 0
456 471 666 681 756 771 981 0
456 471 666 681 756 966 981 0
456 471 666 681 771 966 981 0
456 471 666 756 771 966 981 0
456 471 681 756 771 966 981 0
456 666 681 756 771 966 981 0
471 666 681 756 771 966 981 0
-14 -20 -134 -140 -182 0
-14 -20 -134 -140 -188 0
-14 -20 -134 -140 -218 0
-14 -20 -134 -140 -224 0
-14 -20 -134 -182 -188 0
-14 -20 -134 -182 -218 0
-14 -20 -134 -182 -224 0
-14 -20 -134 -188 -218 0
-14 -20 -134 -188 -224 0
-14 -20 -134 -218 -224 0
-14 -20 -140 -182 -188 0
-14 -20 -140 -182 -218 0
-14 -20 -140 -182 -224 0
-14 -20 -140 -188 -218 0
-14 -20 -140 -188 -224 0
-14 -20 -140 -218 -224 0
-14 -20 -182 -188 -218 0
-14 -20 -182 -188 -224 0
-14 -20 -182 -218 -224 0
-14 -20 -188 -218 -224 0
-14 -134 -140 -182 -188 0
-14 -134 -140 -182 -218 0
-14 -134 -140 -182 -224 0
-14 -134 -140 -188 -218 0
-14 -134 -140 -188 -224 0
-14 -134 -140 -218 -224 0
-14 -134 -182 -188 -218 0
-14 -134 -182 -188 -224 0
-14 -134 -182 -218 -224 0
-14 -134 -188 -218 -224 0
-14 -140 -182 -188 -218 0
-14 -140 -182 -188 -224 0
-14 -140 -182 -218 -224 0
-14 -140 -188 -218 -224 0
-14 -182 -188 -218 -224 0
-20 -134 -140 -182 -188 0
-20 -134 -140 -182 -218 0
-20 -134 -140 -182 -224 0
-20 -134 -140 -188 -218 0
-20 -134 -140 -188 -224 0
-20 -134 -140 -218 -224 0
-20 -134 -182 -188 -218 0
-20 -134 -182 -188 -224 0
-20 -134 -182 -218 -224 0
-20 -134 -188 -218 -224 0
-20 -140 -182 -188 -218 0
-20 -140 -182 -188 -224 0
-20 -140 -182 -218 -224 0
-20 -140 -188 -218 -224 0
-20 -182 -188 -218 -224 0
-134 -140 -182 -188 -218 0
-134 -140 -182 -188 -224 0
-134 -140 -182 -218 -224 0
-134 -140 -188 -218 -224 0
-134 -182 -188 -218 -224 0
-140 -182 -188 -218 -224 0
14 20 134 140 182 0
14 20 134 140 188 0
14 20 134 140 218 0
14 20 134 140 224 0
14 20 134 182 188 0
14 20 134 182 218 0
14 20 134 182 224 0
14 20 134 188 218 0
14 20 134 188 224 0
14 20 134 218 224 0
14 20 140 182 188 0
14 20 140 182 218 0
14 20 140 182 224 0
14 20 140 188 218 0
14 20 140 188 224 0
14 20 140 218 224 0
14 20 182 188 218 0
14 20 182 188 224 0
14 20 182 218 224 0
14 20 188 218 224 0
14 134 140 182 188 0
14 134 140 182 218 0
14 134 140 182 224 0
14 134 140 188 218 0
14 134 140 188 224 0
14 134 140 218 224 0
14 134 182 188 218 0
14 134 182 188 224 0
14 134 182 218 224 0
14 134 188 218 224 0
14 140 182 188 218 0
14 140 182 188 224 0
14 140 182 218 224 0
14 140 188 218 224 0
14 182 188 218 224 0
20 134 140 182 188 0
20 134 140 182 218 0
20 134 140 182 224 0
20 134 140 188 218 0
20 134 140 188 224 0
20 134 140 218 224 0
20 134 182 188 218 0
20 134 182 188 224 0
20 134 182 218 224 0
20 134 188 218 224 0
20 140 182 188 218 0
20 140 182 188 224 0
20 140 182 218 224 0
20 140 188 218 224 0
20 182 188 218 224 0
134 140 182 188 218 0
134 140 182 188 224 0
134 140 182 218 224 0
134 140 188 218 224 0
134 182 188 218 224 0
140 182 188 218 224 0
-15 -21 -135 -141 -183 0
-15 -21 -135 -141 -189 0
-15 -21 -135 -141 -219 0
-15 -21 -135 -141 -225 0
-15 -21 -135 -183 -189 0
-15 -21 -135 -183 -219 0
-15 -21 -135 -183 -225 0
-15 -21 -135 -189 -219 0
-15 -21 -135 -189 -225 0
-15 -21 -135 -219 -225 0
-15 -21 -141 -183 -189 0
-15 -21 -141 -183 -219 0
-15 -21 -141 -183 -225 0
-15 -21 -141 -189 -219 0
-15 -21 -141 -189 -225 0
-15 -21 -141 -219 -225 0
-15 -21 -183 -189 -219 0
-15 -21 -183 -189 -225 0
-15 -21 -183 -219 -225 0
-15 -21 -189 -219 -225 0
-15 -135 -141 -183 -189 0
-15 -135 -141 -183 -219 0
-15 -135 -141 -183 -225 0
-15 -135 -141 -189 -219 0
-15 -135 -141 -189 -225 0
-15 -135 -141 -219 -225 0
-15 -135 -183 -189 -219 0
-15 -135 -183 -189 -225 0
-15 -135 -183 -219 -225 0
-15 -135 -189 -219 -225 0
-15 -141 -183 -189 -219 0
-15 -141 -183 -189 -225 0
-15 -141 -183 -219 -225 0
-15 -141 -189 -219 -225 0
-15 -183 -189 -219 -225 0
-21 -135 -141 -183 -189 0
-21 -135 -141 -183 -219 0
-21 -135 -141 -183 -225 0
-21 -135 -141 -189 -219 0
-21 -135 -141 -189 -225 0
-21 -135 -141 -219 -225 0
-21 -135 -183 -189 -219 0
-21 -135 -183 -189 -225 0
-21 -135 -183 -219 -225 0
-21 -135 -189 -219 -225 0
-21 -141 -183 -189 -219 0
-21 -141 -183 -189 -225 0
-21 -141 -183 -219 -225 0
-21 -141 -189 -219 -225 0
-21 -183 -189 -219 -225 0
-135 -141 -183 -189 -219 0
-135 -141 -183 -189 -225 0
-135 -141 -183 -219 -225 0
-135 -141 -189 -219 -225 0
-135 -183 -189 -219 -225 0
-141 -183 -189 -219 -225 0
15 21 135 141 183 0
15 21 135 141 189 0
15 21 135 141 219 0
15 21 135 141 225 0
15 21 135 183 189 0
15 21 135 183 219 0
15 21 135 183 225 0
15 21 135 189 219 0
15 21 135 189 225 0
15 21 135 219 225 0
15 21 141 183 189 0
15 21 141 183 219 0
15 21 141 183 225 0
15 21 141 189 219 0
15 21 141 189 225 0
15 21 141 219 225 0
15 21 183 189 219 0
15 21 183 189 225 0
15 21 183 219 225 0
15 21 189 219 225 0
15 135 141 183 189 0
15 135 141 183 219 0
15 135 141 183 225 0
15 135 141 189 219 0
15 135 141 189 225 0
15 135 141 219 225 0
15 135 183 189 219 0
15 135 183 189 225 0
15 135 183 219 225 0
15 135 189 219 225 0
15 141 183 189 219 0
15 141 183 189 225 0
15 141 183 219 225 0
15 141 189 219 225 0
15 183 189 219 225 0
21 135 141 183 189 0
21 135 141 183 219 0
21 135 141 183 225 0
21 135 141 189 219 0
21 135 141 189 225 0
21 135 141 219 225 0
21 135 183 189 219 0
21 135 183 189 225 0
21 135 183 219 225 0
21 135 189 219 225 0
21 141 183 189 219 0
21 141 183 189 225 0
21 141 183 219 225 0
21 141 189 219 225 0
21 183 189 219 225 0
135 141 183 189 219 0
135 141 183 189 225 0
135 141 183 219 225 0
135 141 189 219 225 0
135 183 189 219 225 0
141 183 189 219 225 0
-396 -411 -696 0
-396 -411 -711 0
-396 -411 -816 0
-396 -411 -831 0
-396 -411 -906 0
-396 -411 -921 0
-396 -696 -711 0
-396 -696 -816 0
-396 -696 -831 0
-396 -696 -906 0
-396 -696 -921 0
-396 -711 -816 0
-396 -711 -831 0
-396 -711 -906 0
-396 -711 -921 0
-396 -816 -831 0
-396 -816 -906 0
-396 -816 -921 0
-396 -831 -906 0
-396 -831 -921 0
-396 -906 -921 0
-411 -696 -711 0
-411 -696 -816 0
-411 -696 -831 0
-411 -696 -906 0
-411 -696 -921 0
-411 -711 -816 0
-411 -711 -831 0
-411 -711 -906 0
-411 -711 -921 0
-411 -816 -831 0
-411 -816 -906 0
-411 -816 -921 0
-411 -831 -906 0
-411 -831 -921 0
-411 -906 -921 0
-696 -711 -816 0
-696 -711 -831 0
-696 -711 -906 0
-696 -711 -921 0
-696 -816 -831 0
-696 -816 -906 0
-696 -816 -921 0
-696 -831 -906 0
-696 -831 -921 0
-696 -906 -921 0
-711 -816 -831 0
-711 -816 -906 0
-711 -816 -921 0
-711 -831 -906 0
-711 -831 -921 0
-711 -906 -921 0
-816 -831 -906 0
-816 -831 -921 0
-816 -906 -921 0
-831 -906 -921 0
396 411 696 711 816 831 906 0
396 411 696 711 816 831 921 0
396 411 696 711 816 906 921 0
396 411 696 711 831 906 921 0
396 411 696 816 831 906 921 0
396 411 711 816 831 906 921 0
396 696 711 816 831 906 921 0
411 696 711 816 831 906 921 0
-290 -296 -314 0
-290 -296 -320 0
-290 -314 -320 0
-296 -314 -320 0
290 296 314 0
290 296 320 0
290 314 320 0
296 314 320 0
-291 -297 -315 0
-291 -297 -321 0
-291 -315 -321 0
-297 -315 -321 0
291 297 315 0
291 297 321 0
291 315 321 0
297 315 321 0
-1086 -1101 0
-1086 -1146 0
-1086 -1161 0
-1101 -1146 0
-1101 -1161 0
-1146 -1161 0
1086 1101 1146 1161 0
-170 -176 -194 0
-170 -176 -200 0
-170 -194 -200 0
-176 -194 -200 0
170 176 194 0
170 176 200 0
170 194 200 0
176 194 200 0
-172 -178 -196 0
-172 -178 -202 0
-172 -196 -202 0
-178 -196 -202 0
172 178 196 0
172 178 202 0
172 196 202 0
178 196 202 0
-787 -802 0
-787 -847 0
-787 -862 0
-802 -847 0
-802 -862 0
-847 -862 0
787 802 847 862 0
-50 -56 -86 -92 -254 0
-50 -56 -86 -92 -260 0
-50 -56 -86 -92 -350 0
-50 -56 -86 -92 -356 0
-50 -56 -86 -254 -260 0
-50 -56 -86 -254 -350 0
-50 -56 -86 -254 -356 0
-50 -56 -86 -260 -350 0
-50 -56 -86 -260 -356 0
-50 -56 -86 -350 -356 0
-50 -56 -92 -254 -260 0
-50 -56 -92 -254 -350 0
-50 -56 -92 -254 -356 0
-50 -56 -92 -260 -350 0
-50 -56 -92 -260 -356 0
-50 -56 -92 -350 -356 0
-50 -56 -254 -260 -350 0
-50 -56 -254 -260 -356 0
-50 -56 -254 -350 -356 0
-50 -56 -260 -350 -356 0
-50 -86 -92 -254 -260 0
-50 -86 -92 -254 -350 0
-50 -86 -92 -254 -356 0
-50 -86 -92 -260 -350 0
-50 -86 -92 -260 -356 0
-50 -86 -92 -350 -356 0
-50 -86 -254 -260 -350 0
-50 -86 -254 -260 -356 0
-50 -86 -254 -350 -356 0
-50 -86 -260 -350 -356 0
-50 -92 -254 -260 -350 0
-50 -92 -254 -260 -356 0
-50 -92 -254 -350 -356 0
-50 -92 -260 -350 -356 0
-50 -254 -260 -350 -356 0
-56 -86 -92 -254 -260 0
-56 -86 -92 -254 -350 0
-56 -86 -92 -254 -356 0
-56 -86 -92 -260 -350 0
-56 -86 -92 -260 -356 0
-56 -86 -92 -350 -356 0
-56 -86 -254 -260 -350 0
-56 -86 -254 -260 -356 0
-56 -86 -254 -350 -356 0
-56 -86 -260 -350 -356 0
-56 -92 -254 -260 -350 0
-56 -92 -254 -260 -356 0
-56 -92 -254 -350 -356 0
-56 -92 -260 -350 -356 0
-56 -254 -260 -350 -356 0
-86 -92 -254 -260 -350 0
-86 -92 -254 -260 -356 0
-86 -92 -254 -350 -356 0
-86 -92 -260 -350 -356 0
-86 -254 -260 -350 -356 0
-92 -254 -260 -350 -356 0
50 56 86 92 254 0
50 56 86 92 260 0
50 56 86 92 350 0
50 56 86 92 356 0
50 56 86 254 260 0
50 56 86 254 350 0
50 56 86 254 356 0
50 56 86 260 350 0
50 56 86 260 356 0
50 56 86 350 356 0
50 56 92 254 260 0
50 56 92 254 350 0
50 56 92 254 356 0
50 56 92 260 350 0
50 56 92 260 356 0
50 56 92 350 356 0
50 56 254 260 350 0
50 56 254 260 356 0
50 56 254 350 356 0
50 56 260 350 356 0
50 86 92 254 260 0
50 86 92 254 350 0
50 86 92 254 356 0
50 86 92 260 350 0
50 86 92 260 356 0
50 86 92 350 356 0
50 86 254 260 350 0
50 86 254 260 356 0
50 86 254 350 356 0
50 86 260 350 356 0
50 92 254 260 350 0
50 92 254 260 356 0
50 92 254 350 356 0
50 92 260 350 356 0
50 254 260 350 356 0
56 86 92 254 260 0
56 86 92 254 350 0
56 86 92 254 356 0
56 86 92 260 350 0
56 86 92 260 356 0
56 86 92 350 356 0
56 86 254 260 350 0
56 86 254 260 356 0
56 86 254 350 356 0
56 86 260 350 356 0
56 92 254 260 350 0
56 92 254 260 356 0
56 92 254 350 356 0
56 92 260 350 356 0
56 254 260 350 356 0
86 92 254 260 350 0
86 92 254 260 356 0
86 92 254 350 356 0
86 92 260 350 356 0
86 254 260 350 356 0
92 254 260 350 356 0
-52 -58 -88 -94 -256 0
-52 -58 -88 -94 -262 0
-52 -58 -88 -94 -352 0
-52 -58 -88 -94 -358 0
-52 -58 -88 -256 -262 0
-52 -58 -88 -256 -352 0
-52 -58 -88 -256 -358 0
-52 -58 -88 -262 -352 0
-52 -58 -88 -262 -358 0
-52 -58 -88 -352 -358 0
-52 -58 -94 -256 -262 0
-52 -58 -94 -256 -352 0
-52 -58 -94 -256 -358 0
-52 -58 -94 -262 -352 0
-52 -58 -94 -262 -358 0
-52 -58 -94 -352 -358 0
-52 -58 -256 -262 -352 0
-52 -58 -256 -262 -358 0
-52 -58 -256 -352 -358 0
-52 -58 -262 -352 -358 0
-52 -88 -94 -256 -262 0
-52 -88 -94 -256 -352 0
-52 -88 -94 -256 -358 0
-52 -88 -94 -262 -352 0
-52 -88 -94 -262 -358 0
-52 -88 -94 -352 -358 0
-52 -88 -256 -262 -352 0
-52 -88 -256 -262 -358 0
-52 -88 -256 -352 -358 0
-52 -88 -262 -352 -358 0
-52 -94 -256 -262 -352 0
-52 -94 -256 -262 -358 0
-52 -94 -256 -352 -358 0
-52 -94 -262 -352 -358 0
-52 -256 -262 -352 -358 0
-58 -88 -94 -256 -262 0
-58 -88 -94 -256 -352 0
-58 -88 -94 -256 -358 0
-58 -88 -94 -262 -352 0
-58 -88 -94 -262 -358 0
-58 -88 -94 -352 -358 0
-58 -88 -256 -262 -352 0
-58 -88 -256 -262 -358 0
-58 -88 -256 -352 -358 0
-58 -88 -262 -352 -358 0
-58 -94 -256 -262 -352 0
-58 -94 -256 -262 -358 0
-58 -94 -256 -352 -358 0
-58 -94 -262 -352 -358 0
-58 -256 -262 -352 -358 0
-88 -94 -256 -262 -352 0
-88 -94 -256 -262 -358 0
-88 -94 -256 -352 -358 0
-88 -94 -262 -352 -358 0
-88 -256 -262 -352 -358 0
-94 -256 -262 -352 -358 0
52 58 88 94 256 0
52 58 88 94 262 0
52 58 88 94 352 0
52 58 88 94 358 0
52 58 88 256 262 0
52 58 88 256 352 0
52 58 88 256 358 0
52 58 88 262 352 0
52 58 88 262 358 0
52 58 88 352 358 0
52 58 94 256 262 0
52 58 94 256 352 0
52 58 94 256 358 0
52 58 94 262 352 0
52 58 94 262 358 0
52 58 94 352 358 0
52 58 256 262 352 0
52 58 256 262 358 0
52 58 256 352 358 0
52 58 262 352 358 0
52 88 94 256 262 0
52 88 94 256 352 0
52 88 94 256 358 0
52 88 94 262 352 0
52 88 94 262 358 0
52 88 94 352 358 0
52 88 256 262 352 0
52 88 256 262 358 0
52 88 256 352 358 0
52 88 262 352 358 0
52 94 256 262 352 0
52 94 256 262 358 0
52 94 256 352 358 0
52 94 262 352 358 0
52 256 262 352 358 0
58 88 94 256 262 0
58 88 94 256 352 0
58 88 94 256 358 0
58 88 94 262 352 0
58 88 94 262 358 0
58 88 94 352 358 0
58 88 256 262 352 0
58 88 256 262 358 0
58 88 256 352 358 0
58 88 262 352 358 0
58 94 256 262 352 0
58 94 256 262 358 0
58 94 256 352 358 0
58 94 262 352 358 0
58 256 262 352 358 0
88 94 256 262 352 0
88 94 256 262 358 0
88 94 256 352 358 0
88 94 262 352 358 0
88 256 262 352 358 0
94 256 262 352 358 0
-487 -502 -577 0
-487 -502 -592 0
-487 -502 -997 0
-487 -502 -1012 0
-487 -502 -1237 0
-487 -502 -1252 0
-487 -577 -592 0
-487 -577 -997 0
-487 -577 -1012 0
-487 -577 -1237 0
-487 -577 -1252 0
-487 -592 -997 0
-487 -592 -1012 0
-487 -592 -1237 0
-487 -592 -1252 0
-487 -997 -1012 0
-487 -997 -1237 0
-487 -997 -1252 0
-487 -1012 -1237 0
-487 -1012 -1252 0
-487 -1237 -1252 0
-502 -577 -592 0
-502 -577 -997 0
-502 -577 -1012 0
-502 -577 -1237 0
-502 -577 -1252 0
-502 -592 -997 0
-502 -592 -1012 0
-502 -592 -1237 0
-502 -592 -1252 0
-502 -997 -1012 0
-502 -997 -1237 0
-502 -997 -1252 0
-502 -1012 -1237 0
-502 -1012 -1252 0
-502 -1237 -1252 0
-577 -592 -997 0
-577 -592 -1012 0
-577 -592 -1237 0
-577 -592 -1252 0
-577 -997 -1012 0
-577 -997 -1237 0
-577 -997 -1252 0
-577 -1012 -1237 0
-577 -1012 -1252 0
-577 -1237 -1252 0
-592 -997 -1012 0
-592 -997 -1237 0
-592 -997 -1252 0
-592 -1012 -1237 0
-592 -1012 -1252 0
-592 -1237 -1252 0
-997 -1012 -1237 0
-997 -1012 -1252 0
-997 -1237 -1252 0
-1012 -1237 -1252 0
487 502 577 592 997 1012 1237 0
487 502 577 592 997 1012 1252 0
487 502 577 592 997 1237 1252 0
487 502 577 592 1012 1237 1252 0
487 502 577 997 1012 1237 1252 0
487 502 592 997 1012 1237 1252 0
487 577 592 997 1012 1237 1252 0
502 577 592 997 1012 1237 1252 0
-26 -32 -74 -80 -278 0
-26 -32 -74 -80 -284 0
-26 -32 -74 -80 -326 0
-26 -32 -74 -80 -332 0
-26 -32 -74 -278 -284 0
-26 -32 -74 -278 -326 0
-26 -32 -74 -278 -332 0
-26 -32 -74 -284 -326 0
-26 -32 -74 -284 -332 0
-26 -32 -74 -326 -332 0
-26 -32 -80 -278 -284 0
-26 -32 -80 -278 -326 0
-26 -32 -80 -278 -332 0
-26 -32 -80 -284 -326 0
-26 -32 -80 -284 -332 0
-26 -32 -80 -326 -332 0
-26 -32 -278 -284 -326 0
-26 -32 -278 -284 -332 0
-26 -32 -278 -326 -332 0
-26 -32 -284 -326 -332 0
-26 -74 -80 -278 -284 0
-26 -74 -80 -278 -326 0
-26 -74 -80 -278 -332 0
-26 -74 -80 -284 -326 0
-26 -74 -80 -284 -332 0
-26 -74 -80 -326 -332 0
-26 -74 -278 -284 -326 0
-26 -74 -278 -284 -332 0
-26 -74 -278 -326 -332 0
-26 -74 -284 -326 -332 0
-26 -80 -278 -284 -326 0
-26 -80 -278 -284 -332 0
-26 -80 -278 -326 -332 0
-26 -80 -284 -326 -332 0
-26 -278 -284 -326 -332 0
-32 -74 -80 -278 -284 0
-32 -74 -80 -278 -326 0
-32 -74 -80 -278 -332 0
-32 -74 -80 -284 -326 0
-32 -74 -80 -284 -332 0
-32 -74 -80 -326 -332 0
-32 -74 -278 -284 -326 0
-32 -74 -278 -284 -332 0
-32 -74 -278 -326 -332 0
-32 -74 -284 -326 -332 0
-32 -80 -278 -284 -326 0
-32 -80 -278 -284 -332 0
-32 -80 -278 -326 -332 0
-32 -80 -284 -326 -332 0
-32 -278 -284 -326 -332 0
-74 -80 -278 -284 -326 0
-74 -80 -278 -284 -332 0
-74 -80 -278 -326 -332 0
-74 -80 -284 -326 -332 0
-74 -278 -284 -326 -332 0
-80 -278 -284 -326 -332 0
26 32 74 80 278 0
26 32 74 80 284 0
26 32 74 80 326 0
26 32 74 80 332 0
26 32 74 278 284 0
26 32 74 278 326 0
26 32 74 278 332 0
26 32 74 284 326 0
26 32 74 284 332 0
26 32 74 326 332 0
26 32 80 278 284 0
26 32 80 278 326 0
26 32 80 278 332 0
26 32 80 284 326 0
26 32 80 284 332 0
26 32 80 326 332 0
26 32 278 284 326 0
26 32 278 284 332 0
26 32 278 326 332 0
26 32 284 326 332 0
26 74 80 278 284 0
26 74 80 278 326 0
26 74 80 278 332 0
26 74 80 284 326 0
26 74 80 284 332 0
26 74 80 326 332 0
26 74 278 284 326 0
26 74 278 284 332 0
26 74 278 326 332 0
26 74 284 326 332 0
26 80 278 284 326 0
26 80 278 284 332 0
26 80 278 326 332 0
26 80 284 326 332 0
26 278 284 326 332 0
32 74 80 278 284 0
32 74 80 278 326 0
32 74 80 278 332 0
32 74 80 284 326 0
32 74 80 284 332 0
32 74 80 326 332 0
32 74 278 284 326 0
32 74 278 284 332 0
32 74 278 326 332 0
32 74 284 326 332 0
32 80 278 284 326 0
32 80 278 284 332 0
32 80 278 326 332 0
32 80 284 326 332 0
32 278 284 326 332 0
74 80 278 284 326 0
74 80 278 284 332 0
74 80 278 326 332 0
74 80 284 326 332 0
74 278 284 326 332 0
80 278 284 326 332 0
-28 -34 -76 -82 -280 0
-28 -34 -76 -82 -286 0
-28 -34 -76 -82 -328 0
-28 -34 -76 -82 -334 0
-28 -34 -76 -280 -286 0
-28 -34 -76 -280 -328 0
-28 -34 -76 -280 -334 0
-28 -34 -76 -286 -328 0
-28 -34 -76 -286 -334 0
-28 -34 -76 -328 -334 0
-28 -34 -82 -280 -286 0
-28 -34 -82 -280 -328 0
-28 -34 -82 -280 -334 0
-28 -34 -82 -286 -328 0
-28 -34 -82 -286 -334 0
-28 -34 -82 -328 -334 0
-28 -34 -280 -286 -328 0
-28 -34 -280 -286 -334 0
-28 -34 -280 -328 -334 0
-28 -34 -286 -328 -334 0
-28 -76 -82 -280 -286 0
-28 -76 -82 -280 -328 0
-28 -76 -82 -280 -334 0
-28 -76 -82 -286 -328 0
-28 -76 -82 -286 -334 0
-28 -76 -82 -328 -334 0
-28 -76 -280 -286 -328 0
-28 -76 -280 -286 -334 0
-28 -76 -280 -328 -334 0
-28 -76 -286 -328 -334 0
-28 -82 -280 -286 -328 0
-28 -82 -280 -286 -334 0
-28 -82 -280 -328 -334 0
-28 -82 -286 -328 -334 0
-28 -280 -286 -328 -334 0
-34 -76 -82 -280 -286 0
-34 -76 -82 -280 -328 0
-34 -76 -82 -280 -334 0
-34 -76 -82 -286 -328 0
-34 -76 -82 -286 -334 0
-34 -76 -82 -328 -334 0
-34 -76 -280 -286 -328 0
-34 -76 -280 -286 -334 0
-34 -76 -280 -328 -334 0
-34 -76 -286 -328 -334 0
-34 -82 -280 -286 -328 0
-34 -82 -280 -286 -334 0
-34 -82 -280 -328 -334 0
-34 -82 -286 -328 -334 0
-34 -280 -286 -328 -334 0
-76 -82 -280 -286 -328 0
-76 -82 -280 -286 -334 0
-76 -82 -280 -328 -334 0
-76 -82 -286 -328 -334 0
-76 -280 -286 -328 -334 0
-82 -280 -286 -328 -334 0
28 34 76 82 280 0
28 34 76 82 286 0
28 34 76 82 328 0
28 34 76 82 334 0
28 34 76 280 286 0
28 34 76 280 328 0
28 34 76 280 334 0
28 34 76 286 328 0
28 34 76 286 334 0
28 34 76 328 334 0
28 34 82 280 286 0
28 34 82 280 328 0
28 34 82 280 334 0
28 34 82 286 328 0
28 34 82 286 334 0
28 34 82 328 334 0
28 34 280 286 328 0
28 34 280 286 334 0
28 34 280 328 334 0
28 34 286 328 334 0
28 76 82 280 286 0
28 76 82 280 328 0
28 76 82 280 334 0
28 76 82 286 328 0
28 76 82 286 334 0
28 76 82 328 334 0
28 76 280 286 328 0
28 76 280 286 334 0
28 76 280 328 334 0
28 76 286 328 334 0
28 82 280 286 328 0
28 82 280 286 334 0
28 82 280 328 334 0
28 82 286 328 334 0
28 280 286 328 334 0
34 76 82 280 286 0
34 76 82 280 328 0
34 76 82 280 334 0
34 76 82 286 328 0
34 76 82 286 334 0
34 76 82 328 334 0
34 76 280 286 328 0
34 76 280 286 334 0
34 76 280 328 334 0
34 76 286 328 334 0
34 82 280 286 328 0
34 82 280 286 334 0
34 82 280 328 334 0
34 82 286 328 334 0
34 280 286 328 334 0
76 82 280 286 328 0
76 82 280 286 334 0
76 82 280 328 334 0
76 82 286 328 334 0
76 280 286 328 334 0
82 280 286 328 334 0
-427 -442 -547 0
-427 -442 -562 0
-427 -442 -1057 0
-427 -442 -1072 0
-427 -442 -1177 0
-427 -442 -1192 0
-427 -547 -562 0
-427 -547 -1057 0
-427 -547 -1072 0
-427 -547 -1177 0
-427 -547 -1192 0
-427 -562 -1057 0
-427 -562 -1072 0
-427 -562 -1177 0
-427 -562 -1192 0
-427 -1057 -1072 0
-427 -1057 -1177 0
-427 -1057 -1192 0
-427 -1072 -1177 0
-427 -1072 -1192 0
-427 -1177 -1192 0
-442 -547 -562 0
-442 -547 -1057 0
-442 -547 -1072 0
-442 -547 -1177 0
-442 -547 -1192 0
-442 -562 -1057 0
-442 -562 -1072 0
-442 -562 -1177 0
-442 -562 -1192 0
-442 -1057 -1072 0
-442 -1057 -1177 0
-442 -1057 -1192 0
-442 -1072 -1177 0
-442 -1072 -1192 0
-442 -1177 -1192 0
-547 -562 -1057 0
-547 -562 -1072 0
-547 -562 -1177 0
-547 -562 -1192 0
-547 -1057 -1072 0
-547 -1057 -1177 0
-547 -1057 -1192 0
-547 -1072 -1177 0
-547 -1072 -1192 0
-547 -1177 -1192 0
-562 -1057 -1072 0
-562 -1057 -1177 0
-562 -1057 -1192 0
-562 -1072 -1177 0
-562 -1072 -1192 0
-562 -1177 -1192 0
-1057 -1072 -1177 0
-1057 -1072 -1192 0
-1057 -1177 -1192 0
-1072 -1177 -1192 0
427 442 547 562 1057 1072 1177 0
427 442 547 562 1057 1072 1192 0
427 442 547 562 1057 1177 1192 0
427 442 547 562 1072 1177 1192 0
427 442 547 1057 1072 1177 1192 0
427 442 562 1057 1072 1177 1192 0
427 547 562 1057 1072 1177 1192 0
442 547 562 1057 1072 1177 1192 0
-62 -68 -110 -116 -230 0
-62 -68 -110 -116 -236 0
-62 -68 -110 -116 -338 0
-62 -68 -110 -116 -344 0
-62 -68 -110 -230 -236 0
-62 -68 -110 -230 -338 0
-62 -68 -110 -230 -344 0
-62 -68 -110 -236 -338 0
-62 -68 -110 -236 -344 0
-62 -68 -110 -338 -344 0
-62 -68 -116 -230 -236 0
-62 -68 -116 -230 -338 0
-62 -68 -116 -230 -344 0
-62 -68 -116 -236 -338 0
-62 -68 -116 -236 -344 0
-62 -68 -116 -338 -344 0
-62 -68 -230 -236 -338 0
-62 -68 -230 -236 -344 0
-62 -68 -230 -338 -344 0
-62 -68 -236 -338 -344 0
-62 -110 -116 -230 -236 0
-62 -110 -116 -230 -338 0
-62 -110 -116 -230 -344 0
-62 -110 -116 -236 -338 0
-62 -110 -116 -236 -344 0
-62 -110 -116 -338 -344 0
-62 -110 -230 -236 -338 0
-62 -110 -230 -236 -344 0
-62 -110 -230 -338 -344 0
-62 -110 -236 -338 -344 0
-62 -116 -230 -236 -338 0
-62 -116 -230 -236 -344 0
-62 -116 -230 -338 -344 0
-62 -116 -236 -338 -344 0
-62 -230 -236 -338 -344 0
-68 -110 -116 -230 -236 0
-68 -110 -116 -230 -338 0
-68 -110 -116 -230 -344 0
-68 -110 -116 -236 -338 0
-68 -110 -116 -236 -344 0
-68 -110 -116 -338 -344 0
-68 -110 -230 -236 -338 0
-68 -110 -230 -236 -344 0
-68 -110 -230 -338 -344 0
-68 -110 -236 -338 -344 0
-68 -116 -230 -236 -338 0
-68 -116 -230 -236 -344 0
-68 -116 -230 -338 -344 0
-68 -116 -236 -338 -344 0
-68 -230 -236 -338 -344 0
-110 -116 -230 -236 -338 0
-110 -116 -230 -236 -344 0
-110 -116 -230 -338 -344 0
-110 -116 -236 -338 -344 0
-110 -230 -236 -338 -344 0
-116 -230 -236 -338 -344 0
62 68 110 116 230 0
62 68 110 116 236 0
62 68 110 116 338 0
62 68 110 116 344 0
62 68 110 230 236 0
62 68 110 230 338 0
62 68 110 230 344 0
62 68 110 236 338 0
62 68 110 236 344 0
62 68 110 338 344 0
62 68 116 230 236 0
62 68 116 230 338 0
62 68 116 230 344 0
62 68 116 236 338 0
62 68 116 236 344 0
62 68 116 338 344 0
62 68 230 236 338 0
62 68 230 236 344 0
62 68 230 338 344 0
62 68 236 338 344 0
62 110 116 230 236 0
62 110 116 230 338 0
62 110 116 230 344 0
62 110 116 236 338 0
62 110 116 236 344 0
62 110 116 338 344 0
62 110 230 236 338 0
62 110 230 236 344 0
62 110 230 338 344 0
62 110 236 338 344 0
62 116 230 236 338 0
62 116 230 236 344 0
62 116 230 338 344 0
62 116 236 338 344 0
62 230 236 338 344 0
68 110 116 230 236 0
68 110 116 230 338 0
68 110 116 230 344 0
68 110 116 236 338 0
68 110 116 236 344 0
68 110 116 338 344 0
68 110 230 236 338 0
68 110 230 236 344 0
68 110 230 338 344 0
68 110 236 338 344 0
68 116 230 236 338 0
68 116 230 236 344 0
68 116 230 338 344 0
68 116 236 338 344 0
68 230 236 338 344 0
110 116 230 236 338 0
110 116 230 236 344 0
110 116 230 338 344 0
110 116 236 338 344 0
110 230 236 338 344 0
116 230 236 338 344 0
-64 -70 -112 -118 -232 0
-64 -70 -112 -118 -238 0
-64 -70 -112 -118 -340 0
-64 -70 -112 -118 -346 0
-64 -70 -112 -232 -238 0
-64 -70 -112 -232 -340 0
-64 -70 -112 -232 -346 0
-64 -70 -112 -238 -340 0
-64 -70 -112 -238 -346 0
-64 -70 -112 -340 -346 0
-64 -70 -118 -232 -238 0
-64 -70 -118 -232 -340 0
-64 -70 -118 -232 -346 0
-64 -70 -118 -238 -340 0
-64 -70 -118 -238 -346 0
-64 -70 -118 -340 -346 0
-64 -70 -232 -238 -340 0
-64 -70 -232 -238 -346 0
-64 -70 -232 -340 -346 0
-64 -70 -238 -340 -346 0
-64 -112 -118 -232 -238 0
-64 -112 -118 -232 -340 0
-64 -112 -118 -232 -346 0
-64 -112 -118 -238 -340 0
-64 -112 -118 -238 -346 0
-64 -112 -118 -340 -346 0
-64 -112 -232 -238 -340 0
-64 -112 -232 -238 -346 0
-64 -112 -232 -340 -346 0
-64 -112 -238 -340 -346 0
-64 -118 -232 -238 -340 0
-64 -118 -232 -238 -346 0
-64 -118 -232 -340 -346 0
-64 -118 -238 -340 -346 0
-64 -232 -238 -340 -346 0
-70 -112 -118 -232 -238 0
-70 -112 -118 -232 -340 0
-70 -112 -118 -232 -346 0
-70 -112 -118 -238 -340 0
-70 -112 -118 -238 -346 0
-70 -112 -118 -340 -346 0
-70 -112 -232 -238 -340 0
-70 -112 -232 -238 -346 0
-70 -112 -232 -340 -346 0
-70 -112 -238 -340 -346 0
-70 -118 -232 -238 -340 0
-70 -118 -232 -238 -346 0
-70 -118 -232 -340 -346 0
-70 -118 -238 -340 -346 0
-70 -232 -238 -340 -346 0
-112 -118 -232 -238 -340 0
-112 -118 -232 -238 -346 0
-112 -118 -232 -340 -346 0
-112 -118 -238 -340 -346 0
-112 -232 -238 -340 -346 0
-118 -232 -238 -340 -346 0
64 70 112 118 232 0
64 70 112 118 238 0
64 70 112 118 340 0
64 70 112 118 346 0
64 70 112 232 238 0
64 70 112 232 340 0
64 70 112 232 346 0
64 70 112 238 340 0
64 70 112 238 346 0
64 70 112 340 346 0
64 70 118 232 238 0
64 70 118 232 340 0
64 70 118 232 346 0
64 70 118 238 340 0
64 70 118 238 346 0
64 70 118 340 346 0
64 70 232 238 340 0
64 70 232 238 346 0
64 70 232 340 346 0
64 70 238 340 346 0
64 112 118 232 238 0
64 112 118 232 340 0
64 112 118 232 346 0
64 112 118 238 340 0
64 112 118 238 346 0
64 112 118 340 346 0
64 112 232 238 340 0
64 112 232 238 346 0
64 112 232 340 346 0
64 112 238 340 346 0
64 118 232 238 340 0
64 118 232 238 346 0
64 118 232 340 346 0
64 118 238 340 346 0
64 232 238 340 346 0
70 112 118 232 238 0
70 112 118 232 340 0
70 112 118 232 346 0
70 112 118 238 340 0
70 112 118 238 346 0
70 112 118 340 346 0
70 112 232 238 340 0
70 112 232 238 346 0
70 112 232 340 346 0
70 112 238 340 346 0
70 118 232 238 340 0
70 118 232 238 346 0
70 118 232 340 346 0
70 118 238 340 346 0
70 232 238 340 346 0
112 118 232 238 340 0
112 118 232 238 346 0
112 118 232 340 346 0
112 118 238 340 346 0
112 232 238 340 346 0
118 232 238 340 346 0
-517 -532 -637 0
-517 -532 -652 0
-517 -532 -937 0
-517 -532 -952 0
-517 -532 -1207 0
-517 -532 -1222 0
-517 -637 -652 0
-517 -637 -937 0
-517 -637 -952 0
-517 -637 -1207 0
-517 -637 -1222 0
-517 -652 -937 0
-517 -652 -952 0
-517 -652 -1207 0
-517 -652 -1222 0
-517 -937 -952 0
-517 -937 -1207 0
-517 -937 -1222 0
-517 -952 -1207 0
-517 -952 -1222 0
-517 -1207 -1222 0
-532 -637 -652 0
-532 -637 -937 0
-532 -637 -952 0
-532 -637 -1207 0
-532 -637 -1222 0
-532 -652 -937 0
-532 -652 -952 0
-532 -652 -1207 0
-532 -652 -1222 0
-532 -937 -952 0
-532 -937 -1207 0
-532 -937 -1222 0
-532 -952 -1207 0
-532 -952 -1222 0
-532 -1207 -1222 0
-637 -652 -937 0
-637 -652 -952 0
-637 -652 -1207 0
-637 -652 -1222 0
-637 -937 -952 0
-637 -937 -1207 0
-637 -937 -1222 0
-637 -952 -1207 0
-637 -952 -1222 0
-637 -1207 -1222 0
-652 -937 -952 0
-652 -937 -1207 0
-652 -937 -1222 0
-652 -952 -1207 0
-652 -952 -1222 0
-652 -1207 -1222 0
-937 -952 -1207 0
-937 -952 -1222 0
-937 -1207 -1222 0
-952 -1207 -1222 0
517 532 637 652 937 952 1207 0
517 532 637 652 937 952 1222 0
517 532 637 652 937 1207 1222 0
517 532 637 652 952 1207 1222 0
517 532 637 937 952 1207 1222 0
517 532 652 937 952 1207 1222 0
517 637 652 937 952 1207 1222 0
532 637 652 937 952 1207 1222 0
-146 -152 -206 0
-146 -152 -212 0
-146 -206 -212 0
-152 -206 -212 0
146 152 206 0
146 152 212 0
146 206 212 0
152 206 212 0
-148 -154 -208 0
-148 -154 -214 0
-148 -208 -214 0
-154 -208 -214 0
148 154 208 0
148 154 214 0
148 208 214 0
154 208 214 0
-727 -742 0
-727 -877 0
-727 -892 0
-742 -877 0
-742 -892 0
-877 -892 0
727 742 877 892 0
-2 -8 -98 -104 -266 0
-2 -8 -98 -104 -272 0
-2 -8 -98 -104 -302 0
-2 -8 -98 -104 -308 0
-2 -8 -98 -266 -272 0
-2 -8 -98 -266 -302 0
-2 -8 -98 -266 -308 0
-2 -8 -98 -272 -302 0
-2 -8 -98 -272 -308 0
-2 -8 -98 -302 -308 0
-2 -8 -104 -266 -272 0
-2 -8 -104 -266 -302 0
-2 -8 -104 -266 -308 0
-2 -8 -104 -272 -302 0
-2 -8 -104 -272 -308 0
-2 -8 -104 -302 -308 0
-2 -8 -266 -272 -302 0
-2 -8 -266 -272 -308 0
-2 -8 -266 -302 -308 0
-2 -8 -272 -302 -308 0
-2 -98 -104 -266 -272 0
-2 -98 -104 -266 -302 0
-2 -98 -104 -266 -308 0
-2 -98 -104 -272 -302 0
-2 -98 -104 -272 -308 0
-2 -98 -104 -302 -308 0
-2 -98 -266 -272 -302 0
-2 -98 -266 -272 -308 0
-2 -98 -266 -302 -308 0
-2 -98 -272 -302 -308 0
-2 -104 -266 -272 -302 0
-2 -104 -266 -272 -308 0
-2 -104 -266 -302 -308 0
-2 -104 -272 -302 -308 0
-2 -266 -272 -302 -308 0
-8 -98 -104 -266 -272 0
-8 -98 -104 -266 -302 0
-8 -98 -104 -266 -308 0
-8 -98 -104 -272 -302 0
-8 -98 -104 -272 -308 0
-8 -98 -104 -302 -308 0
-8 -98 -266 -272 -302 0
-8 -98 -266 -272 -308 0
-8 -98 -266 -302 -308 0
-8 -98 -272 -302 -308 0
-8 -104 -266 -272 -302 0
-8 -104 -266 -272 -308 0
-8 -104 -266 -302 -308 0
-8 -104 -272 -302 -308 0
-8 -266 -272 -302 -308 0
-98 -104 -266 -272 -302 0
-98 -104 -266 -272 -308 0
-98 -104 -266 -302 -308 0
-98 -104 -272 -302 -308 0
-98 -266 -272 -302 -308 0
-104 -266 -272 -302 -308 0
2 8 98 104 266 0
2 8 98 104 272 0
2 8 98 104 302 0
2 8 98 104 308 0
2 8 98 266 272 0
2 8 98 266 302 0
2 8 98 266 308 0
2 8 98 272 302 0
2 8 98 272 308 0
2 8 98 302 308 0
2 8 104 266 272 0
2 8 104 266 302 0
2 8 104 266 308 0
2 8 104 272 302 0
2 8 104 272 308 0
2 8 104 302 308 0
2 8 266 272 302 0
2 8 266 272 308 0
2 8 266 302 308 0
2 8 272 302 308 0
2 98 104 266 272 0
2 98 104 266 302 0
2 98 104 266 308 0
2 98 104 272 302 0
2 98 104 272 308 0
2 98 104 302 308 0
2 98 266 272 302 0
2 98 266 272 308 0
2 98 266 302 308 0
2 98 272 302 308 0
2 104 266 272 302 0
2 104 266 272 308 0
2 104 266 302 308 0
2 104 272 302 308 0
2 266 272 302 308 0
8 98 104 266 272 0
8 98 104 266 302 0
8 98 104 266 308 0
8 98 104 272 302 0
8 98 104 272 308 0
8 98 104 302 308 0
8 98 266 272 302 0
8 98 266 272 308 0
8 98 266 302 308 0
8 98 272 302 308 0
8 104 266 272 302 0
8 104 266 272 308 0
8 104 266 302 308 0
8 104 272 302 308 0
8 266 272 302 308 0
98 104 266 272 302 0
98 104 266 272 308 0
98 104 266 302 308 0
98 104 272 302 308 0
98 266 272 302 308 0
104 266 272 302 308 0
-4 -10 -100 -106 -268 0
-4 -10 -100 -106 -274 0
-4 -10 -100 -106 -304 0
-4 -10 -100 -106 -310 0
-4 -10 -100 -268 -274 0
-4 -10 -100 -268 -304 0
-4 -10 -100 -268 -310 0
-4 -10 -100 -274 -304 0
-4 -10 -100 -274 -310 0
-4 -10 -100 -304 -310 0
-4 -10 -106 -268 -274 0
-4 -10 -106 -268 -304 0
-4 -10 -106 -268 -310 0
-4 -10 -106 -274 -304 0
-4 -10 -106 -274 -310 0
-4 -10 -106 -304 -310 0
-4 -10 -268 -274 -304 0
-4 -10 -268 -274 -310 0
-4 -10 -268 -304 -310 0
-4 -10 -274 -304 -310 0
-4 -100 -106 -268 -274 0
-4 -100 -106 -268 -304 0
-4 -100 -106 -268 -310 0
-4 -100 -106 -274 -304 0
-4 -100 -106 -274 -310 0
-4 -100 -106 -304 -310 0
-4 -100 -268 -274 -304 0
-4 -100 -268 -274 -310 0
-4 -100 -268 -304 -310 0
-4 -100 -274 -304 -310 0
-4 -106 -268 -274 -304 0
-4 -106 -268 -274 -310 0
-4 -106 -268 -304 -310 0
-4 -106 -274 -304 -310 0
-4 -268 -274 -304 -310 0
-10 -100 -106 -268 -274 0
-10 -100 -106 -268 -304 0
-10 -100 -106 -268 -310 0
-10 -100 -106 -274 -304 0
-10 -100 -106 -274 -310 0
-10 -100 -106 -304 -310 0
-10 -100 -268 -274 -304 0
-10 -100 -268 -274 -310 0
-10 -100 -268 -304 -310 0
-10 -100 -274 -304 -310 0
-10 -106 -268 -274 -304 0
-10 -106 -268 -274 -310 0
-10 -106 -268 -304 -310 0
-10 -106 -274 -304 -310 0
-10 -268 -274 -304 -310 0
-100 -106 -268 -274 -304 0
-100 -106 -268 -274 -310 0
-100 -106 -268 -304 -310 0
-100 -106 -274 -304 -310 0
-100 -268 -274 -304 -310 0
-106 -268 -274 -304 -310 0
4 10 100 106 268 0
4 10 100 106 274 0
4 10 100 106 304 0
4 10 100 106 310 0
4 10 100 268 274 0
4 10 100 268 304 0
4 10 100 268 310 0
4 10 100 274 304 0
4 10 100 274 310 0
4 10 100 304 310 0
4 10 106 268 274 0
4 10 106 268 304 0
4 10 106 268 310 0
4 10 106 274 304 0
4 10 106 274 310 0
4 10 106 304 310 0
4 10 268 274 304 0
4 10 268 274 310 0
4 10 268 304 310 0
4 10 274 304 310 0
4 100 106 268 274 0
4 100 106 268 304 0
4 100 106 268 310 0
4 100 106 274 304 0
4 100 106 274 310 0
4 100 106 304 310 0
4 100 268 274 304 0
4 100 268 274 310 0
4 100 268 304 310 0
4 100 274 304 310 0
4 106 268 274 304 0
4 106 268 274 310 0
4 106 268 304 310 0
4 106 274 304 310 0
4 268 274 304 310 0
10 100 106 268 274 0
10 100 106 268 304 0
10 100 106 268 310 0
10 100 106 274 304 0
10 100 106 274 310 0
10 100 106 304 310 0
10 100 268 274 304 0
10 100 268 274 310 0
10 100 268 304 310 0
10 100 274 304 310 0
10 106 268 274 304 0
10 106 268 274 310 0
10 106 268 304 310 0
10 106 274 304 310 0
10 268 274 304 310 0
100 106 268 274 304 0
100 106 268 274 310 0
100 106 268 304 310 0
100 106 274 304 310 0
100 268 274 304 310 0
106 268 274 304 310 0
-367 -382 -607 0
-367 -382 -622 0
-367 -382 -1027 0
-367 -382 -1042 0
-367 -382 -1117 0
-367 -382 -1132 0
-367 -607 -622 0
-367 -607 -1027 0
-367 -607 -1042 0
-367 -607 -1117 0
-367 -607 -1132 0
-367 -622 -1027 0
-367 -622 -1042 0
-367 -622 -1117 0
-367 -622 -1132 0
-367 -1027 -1042 0
-367 -1027 -1117 0
-367 -1027 -1132 0
-367 -1042 -1117 0
-367 -1042 -1132 0
-367 -1117 -1132 0
-382 -607 -622 0
-382 -607 -1027 0
-382 -607 -1042 0
-382 -607 -1117 0
-382 -607 -1132 0
-382 -622 -1027 0
-382 -622 -1042 0
-382 -622 -1117 0
-382 -622 -1132 0
-382 -1027 -1042 0
-382 -1027 -1117 0
-382 -1027 -1132 0
-382 -1042 -1117 0
-382 -1042 -1132 0
-382 -1117 -1132 0
-607 -622 -1027 0
-607 -622 -1042 0
-607 -622 -1117 0
-607 -622 -1132 0
-607 -1027 -1042 0
-607 -1027 -1117 0
-607 -1027 -1132 0
-607 -1042 -1117 0
-607 -1042 -1132 0
-607 -1117 -1132 0
-622 -1027 -1042 0
-622 -1027 -1117 0
-622 -1027 -1132 0
-622 -1042 -1117 0
-622 -1042 -1132 0
-622 -1117 -1132 0
-1027 -1042 -1117 0
-1027 -1042 -1132 0
-1027 -1117 -1132 0
-1042 -1117 -1132 0
367 382 607 622 1027 1042 1117 0
367 382 607 622 1027 1042 1132 0
367 382 607 622 1027 1117 1132 0
367 382 607 622 1042 1117 1132 0
367 382 607 1027 1042 1117 1132 0
367 382 622 1027 1042 1117 1132 0
367 607 622 1027 1042 1117 1132 0
382 607 622 1027 1042 1117 1132 0
-38 -44 -134 -140 -218 0
-38 -44 -134 -140 -224 0
-38 -44 -134 -140 -314 0
-38 -44 -134 -140 -320 0
-38 -44 -134 -218 -224 0
-38 -44 -134 -218 -314 0
-38 -44 -134 -218 -320 0
-38 -44 -134 -224 -314 0
-38 -44 -134 -224 -320 0
-38 -44 -134 -314 -320 0
-38 -44 -140 -218 -224 0
-38 -44 -140 -218 -314 0
-38 -44 -140 -218 -320 0
-38 -44 -140 -224 -314 0
-38 -44 -140 -224 -320 0
-38 -44 -140 -314 -320 0
-38 -44 -218 -224 -314 0
-38 -44 -218 -224 -320 0
-38 -44 -218 -314 -320 0
-38 -44 -224 -314 -320 0
-38 -134 -140 -218 -224 0
-38 -134 -140 -218 -314 0
-38 -134 -140 -218 -320 0
-38 -134 -140 -224 -314 0
-38 -134 -140 -224 -320 0
-38 -134 -140 -314 -320 0
-38 -134 -218 -224 -314 0
-38 -134 -218 -224 -320 0
-38 -134 -218 -314 -320 0
-38 -134 -224 -314 -320 0
-38 -140 -218 -224 -314 0
-38 -140 -218 -224 -320 0
-38 -140 -218 -314 -320 0
-38 -140 -224 -314 -320 0
-38 -218 -224 -314 -320 0
-44 -134 -140 -218 -224 0
-44 -134 -140 -218 -314 0
-44 -134 -140 -218 -320 0
-44 -134 -140 -224 -314 0
-44 -134 -140 -224 -320 0
-44 -134 -140 -314 -320 0
-44 -134 -218 -224 -314 0
-44 -134 -218 -224 -320 0
-44 -134 -218 -314 -320 0
-44 -134 -224 -314 -320 0
-44 -140 -218 -224 -314 0
-44 -140 -218 -224 -320 0
-44 -140 -218 -314 -320 0
-44 -140 -224 -314 -320 0
-44 -218 -224 -314 -320 0
-134 -140 -218 -224 -314 0
-134 -140 -218 -224 -320 0
-134 -140 -218 -314 -320 0
-134 -140 -224 -314 -320 0
-134 -218 -224 -314 -320 0
-140 -218 -224 -314 -320 0
38 44 134 140 218 0
38 44 134 140 224 0
38 44 134 140 314 0
38 44 134 140 320 0
38 44 134 218 224 0
38 44 134 218 314 0
38 44 134 218 320 0
38 44 134 224 314 0
38 44 134 224 320 0
38 44 134 314 320 0
38 44 140 218 224 0
38 44 140 218 314 0
38 44 140 218 320 0
38 44 140 224 314 0
38 44 140 224 320 0
38 44 140 314 320 0
38 44 218 224 314 0
38 44 218 224 320 0
38 44 218 314 320 0
38 44 224 314 320 0
38 134 140 218 224 0
38 134 140 218 314 0
38 134 140 218 320 0
38 134 140 224 314 0
38 134 140 224 320 0
38 134 140 314 320 0
38 134 218 224 314 0
38 134 218 224 320 0
38 134 218 314 320 0
38 134 224 314 320 0
38 140 218 224 314 0
38 140 218 224 320 0
38 140 218 314 320 0
38 140 224 314 320 0
38 218 224 314 320 0
44 134 140 218 224 0
44 134 140 218 314 0
44 134 140 218 320 0
44 134 140 224 314 0
44 134 140 224 320 0
44 134 140 314 320 0
44 134 218 224 314 0
44 134 218 224 320 0
44 134 218 314 320 0
44 134 224 314 320 0
44 140 218 224 314 0
44 140 218 224 320 0
44 140 218 314 320 0
44 140 224 314 320 0
44 218 224 314 320 0
134 140 218 224 314 0
134 140 218 224 320 0
134 140 218 314 320 0
134 140 224 314 320 0
134 218 224 314 320 0
140 218 224 314 320 0
-40 -46 -136 -142 -220 0
-40 -46 -136 -142 -226 0
-40 -46 -136 -142 -316 0
-40 -46 -136 -142 -322 0
-40 -46 -136 -220 -226 0
-40 -46 -136 -220 -316 0
-40 -46 -136 -220 -322 0
-40 -46 -136 -226 -316 0
-40 -46 -136 -226 -322 0
-40 -46 -136 -316 -322 0
-40 -46 -142 -220 -226 0
-40 -46 -142 -220 -316 0
-40 -46 -142 -220 -322 0
-40 -46 -142 -226 -316 0
-40 -46 -142 -226 -322 0
-40 -46 -142 -316 -322 0
-40 -46 -220 -226 -316 0
-40 -46 -220 -226 -322 0
-40 -46 -220 -316 -322 0
-40 -46 -226 -316 -322 0
-40 -136 -142 -220 -226 0
-40 -136 -142 -220 -316 0
-40 -136 -142 -220 -322 0
-40 -136 -142 -226 -316 0
-40 -136 -142 -226 -322 0
-40 -136 -142 -316 -322 0
-40 -136 -220 -226 -316 0
-40 -136 -220 -226 -322 0
-40 -136 -220 -316 -322 0
-40 -136 -226 -316 -322 0
-40 -142 -220 -226 -316 0
-40 -142 -220 -226 -322 0
-40 -142 -220 -316 -322 0
-40 -142 -226 -316 -322 0
-40 -220 -226 -316 -322 0
-46 -136 -142 -220 -226 0
-46 -136 -142 -220 -316 0
-46 -136 -142 -220 -322 0
-46 -136 -142 -226 -316 0
-46 -136 -142 -226 -322 0
-46 -136 -142 -316 -322 0
-46 -136 -220 -226 -316 0
-46 -136 -220 -226 -322 0
-46 -136 -220 -316 -322 0
-46 -136 -226 -316 -322 0
-46 -142 -220 -226 -316 0
-46 -142 -220 -226 -322 0
-46 -142 -220 -316 -322 0
-46 -142 -226 -316 -322 0
-46 -220 -226 -316 -322 0
-136 -142 -220 -226 -316 0
-136 -142 -220 -226 -322 0
-136 -142 -220 -316 -322 0
-136 -142 -226 -316 -322 0
-136 -220 -226 -316 -322 0
-142 -220 -226 -316 -322 0
40 46 136 142 220 0
40 46 136 142 226 0
40 46 136 142 316 0
40 46 136 142 322 0
40 46 136 220 226 0
40 46 136 220 316 0
40 46 136 220 322 0
40 46 136 226 316 0
40 46 136 226 322 0
40 46 136 316 322 0
40 46 142 220 226 0
40 46 142 220 316 0
40 46 142 220 322 0
40 46 142 226 316 0
40 46 142 226 322 0
40 46 142 316 322 0
40 46 220 226 316 0
40 46 220 226 322 0
40 46 220 316 322 0
40 46 226 316 322 0
40 136 142 220 226 0
40 136 142 220 316 0
40 136 142 220 322 0
40 136 142 226 316 0
40 136 142 226 322 0
40 136 142 316 322 0
40 136 220 226 316 0
40 136 220 226 322 0
40 136 220 316 322 0
40 136 226 316 322 0
40 142 220 226 316 0
40 142 220 226 322 0
40 142 220 316 322 0
40 142 226 316 322 0
40 220 226 316 322 0
46 136 142 220 226 0
46 136 142 220 316 0
46 136 142 220 322 0
46 136 142 226 316 0
46 136 142 226 322 0
46 136 142 316 322 0
46 136 220 226 316 0
46 136 220 226 322 0
46 136 220 316 322 0
46 136 226 316 322 0
46 142 220 226 316 0
46 142 220 226 322 0
46 142 220 316 322 0
46 142 226 316 322 0
46 220 226 316 322 0
136 142 220 226 316 0
136 142 220 226 322 0
136 142 220 316 322 0
136 142 226 316 322 0
136 220 226 316 322 0
142 220 226 316 322 0
-457 -472 -697 0
-457 -472 -712 0
-457 -472 -907 0
-457 -472 -922 0
-457 -472 -1147 0
-457 -472 -1162 0
-457 -697 -712 0
-457 -697 -907 0
-457 -697 -922 0
-457 -697 -1147 0
-457 -697 -1162 0
-457 -712 -907 0
-457 -712 -922 0
-457 -712 -1147 0
-457 -712 -1162 0
-457 -907 -922 0
-457 -907 -1147 0
-457 -907 -1162 0
-457 -922 -1147 0
-457 -922 -1162 0
-457 -1147 -1162 0
-472 -697 -712 0
-472 -697 -907 0
-472 -697 -922 0
-472 -697 -1147 0
-472 -697 -1162 0
-472 -712 -907 0
-472 -712 -922 0
-472 -712 -1147 0
-472 -712 -1162 0
-472 -907 -922 0
-472 -907 -1147 0
-472 -907 -1162 0
-472 -922 -1147 0
-472 -922 -1162 0
-472 -1147 -1162 0
-697 -712 -907 0
-697 -712 -922 0
-697 -712 -1147 0
-697 -712 -1162 0
-697 -907 -922 0
-697 -907 -1147 0
-697 -907 -1162 0
-697 -922 -1147 0
-697 -922 -1162 0
-697 -1147 -1162 0
-712 -907 -922 0
-712 -907 -1147 0
-712 -907 -1162 0
-712 -922 -1147 0
-712 -922 -1162 0
-712 -1147 -1162 0
-907 -922 -1147 0
-907 -922 -1162 0
-907 -1147 -1162 0
-922 -1147 -1162 0
457 472 697 712 907 922 1147 0
457 472 697 712 907 922 1162 0
457 472 697 712 907 1147 1162 0
457 472 697 712 922 1147 1162 0
457 472 697 907 922 1147 1162 0
457 472 712 907 922 1147 1162 0
457 697 712 907 922 1147 1162 0
472 697 712 907 922 1147 1162 0
-14 -20 -122 -128 -242 0
-14 -20 -122 -128 -248 0
-14 -20 -122 -128 -290 0
-14 -20 -122 -128 -296 0
-14 -20 -122 -242 -248 0
-14 -20 -122 -242 -290 0
-14 -20 -122 -242 -296 0
-14 -20 -122 -248 -290 0
-14 -20 -122 -248 -296 0
-14 -20 -122 -290 -296 0
-14 -20 -128 -242 -248 0
-14 -20 -128 -242 -290 0
-14 -20 -128 -242 -296 0
-14 -20 -128 -248 -290 0
-14 -20 -128 -248 -296 0
-14 -20 -128 -290 -296 0
-14 -20 -242 -248 -290 0
-14 -20 -242 -248 -296 0
-14 -20 -242 -290 -296 0
-14 -20 -248 -290 -296 0
-14 -122 -128 -242 -248 0
-14 -122 -128 -242 -290 0
-14 -122 -128 -242 -296 0
-14 -122 -128 -248 -290 0
-14 -122 -128 -248 -296 0
-14 -122 -128 -290 -296 0
-14 -122 -242 -248 -290 0
-14 -122 -242 -248 -296 0
-14 -122 -242 -290 -296 0
-14 -122 -248 -290 -296 0
-14 -128 -242 -248 -290 0
-14 -128 -242 -248 -296 0
-14 -128 -242 -290 -296 0
-14 -128 -248 -290 -296 0
-14 -242 -248 -290 -296 0
-20 -122 -128 -242 -248 0
-20 -122 -128 -242 -290 0
-20 -122 -128 -242 -296 0
-20 -122 -128 -248 -290 0
-20 -122 -128 -248 -296 0
-20 -122 -128 -290 -296 0
-20 -122 -242 -248 -290 0
-20 -122 -242 -248 -296 0
-20 -122 -242 -290 -296 0
-20 -122 -248 -290 -296 0
-20 -128 -242 -248 -290 0
-20 -128 -242 -248 -296 0
-20 -128 -242 -290 -296 0
-20 -128 -248 -290 -296 0
-20 -242 -248 -290 -296 0
-122 -128 -242 -248 -290 0
-122 -128 -242 -248 -296 0
-122 -128 -242 -290 -296 0
-122 -128 -248 -290 -296 0
-122 -242 -248 -290 -296 0
-128 -242 -248 -290 -296 0
14 20 122 128 242 0
14 20 122 128 248 0
14 20 122 128 290 0
14 20 122 128 296 0
14 20 122 242 248 0
14 20 122 242 290 0
14 20 122 242 296 0
14 20 122 248 290 0
14 20 122 248 296 0
14 20 122 290 296 0
14 20 128 242 248 0
14 20 128 242 290 0
14 20 128 242 296 0
14 20 128 248 290 0
14 20 128 248 296 0
14 20 128 290 296 0
14 20 242 248 290 0
14 20 242 248 296 0
14 20 242 290 296 0
14 20 248 290 296 0
14 122 128 242 248 0
14 122 128 242 290 0
14 122 128 242 296 0
14 122 128 248 290 0
14 122 128 248 296 0
14 122 128 290 296 0
14 122 242 248 290 0
14 122 242 248 296 0
14 122 242 290 296 0
14 122 248 290 296 0
14 128 242 248 290 0
14 128 242 248 296 0
14 128 242 290 296 0
14 128 248 290 296 0
14 242 248 290 296 0
20 122 128 242 248 0
20 122 128 242 290 0
20 122 128 242 296 0
20 122 128 248 290 0
20 122 128 248 296 0
20 122 128 290 296 0
20 122 242 248 290 0
20 122 242 248 296 0
20 122 242 290 296 0
20 122 248 290 296 0
20 128 242 248 290 0
20 128 242 248 296 0
20 128 242 290 296 0
20 128 248 290 296 0
20 242 248 290 296 0
122 128 242 248 290 0
122 128 242 248 296 0
122 128 242 290 296 0
122 128 248 290 296 0
122 242 248 290 296 0
128 242 248 290 296 0
-16 -22 -124 -130 -244 0
-16 -22 -124 -130 -250 0
-16 -22 -124 -130 -292 0
-16 -22 -124 -130 -298 0
-16 -22 -124 -244 -250 0
-16 -22 -124 -244 -292 0
-16 -22 -124 -244 -298 0
-16 -22 -124 -250 -292 0
-16 -22 -124 -250 -298 0
-16 -22 -124 -292 -298 0
-16 -22 -130 -244 -250 0
-16 -22 -130 -244 -292 0
-16 -22 -130 -244 -298 0
-16 -22 -130 -250 -292 0
-16 -22 -130 -250 -298 0
-16 -22 -130 -292 -298 0
-16 -22 -244 -250 -292 0
-16 -22 -244 -250 -298 0
-16 -22 -244 -292 -298 0
-16 -22 -250 -292 -298 0
-16 -124 -130 -244 -250 0
-16 -124 -130 -244 -292 0
-16 -124 -130 -244 -298 0
-16 -124 -130 -250 -292 0
-16 -124 -130 -250 -298 0
-16 -124 -130 -292 -298 0
-16 -124 -244 -250 -292 0
-16 -124 -244 -250 -298 0
-16 -124 -244 -292 -298 0
-16 -124 -250 -292 -298 0
-16 -130 -244 -250 -292 0
-16 -130 -244 -250 -298 0
-16 -130 -244 -292 -298 0
-16 -130 -250 -292 -298 0
-16 -244 -250 -292 -298 0
-22 -124 -130 -244 -250 0
-22 -124 -130 -244 -292 0
-22 -124 -130 -244 -298 0
-22 -124 -130 -250 -292 0
-22 -124 -130 -250 -298 0
-22 -124 -130 -292 -298 0
-22 -124 -244 -250 -292 0
-22 -124 -244 -250 -298 0
-22 -124 -244 -292 -298 0
-22 -124 -250 -292 -298 0
-22 -130 -244 -250 -292 0
-22 -130 -244 -250 -298 0
-22 -130 -244 -292 -298 0
-22 -130 -250 -292 -298 0
-22 -244 -250 -292 -298 0
-124 -130 -244 -250 -292 0
-124 -130 -244 -250 -298 0
-124 -130 -244 -292 -298 0
-124 -130 -250 -292 -298 0
-124 -244 -250 -292 -298 0
-130 -244 -250 -292 -298 0
16 22 124 130 244 0
16 22 124 130 250 0
16 22 124 130 292 0
16 22 124 130 298 0
16 22 124 244 250 0
16 22 124 244 292 0
16 22 124 244 298 0
16 22 124 250 292 0
16 22 124 250 298 0
16 22 124 292 298 0
16 22 130 244 250 0
16 22 130 244 292 0
16 22 130 244 298 0
16 22 130 250 292 0
16 22 130 250 298 0
16 22 130 292 298 0
16 22 244 250 292 0
16 22 244 250 298 0
16 22 244 292 298 0
16 22 250 292 298 0
16 124 130 244 250 0
16 124 130 244 292 0
16 124 130 244 298 0
16 124 130 250 292 0
16 124 130 250 298 0
16 124 130 292 298 0
16 124 244 250 292 0
16 124 244 250 298 0
16 124 244 292 298 0
16 124 250 292 298 0
16 130 244 250 292 0
16 130 244 250 298 0
16 130 244 292 298 0
16 130 250 292 298 0
16 244 250 292 298 0
22 124 130 244 250 0
22 124 130 244 292 0
22 124 130 244 298 0
22 124 130 250 292 0
22 124 130 250 298 0
22 124 130 292 298 0
22 124 244 250 292 0
22 124 244 250 298 0
22 124 244 292 298 0
22 124 250 292 298 0
22 130 244 250 292 0
22 130 244 250 298 0
22 130 244 292 298 0
22 130 250 292 298 0
22 244 250 292 298 0
124 130 244 250 292 0
124 130 244 250 298 0
124 130 244 292 298 0
124 130 250 292 298 0
124 244 250 292 298 0
130 244 250 292 298 0
-397 -412 -667 0
-397 -412 -682 0
-397 -412 -967 0
-397 -412 -982 0
-397 -412 -1087 0
-397 -412 -1102 0
-397 -667 -682 0
-397 -667 -967 0
-397 -667 -982 0
-397 -667 -1087 0
-397 -667 -1102 0
-397 -682 -967 0
-397 -682 -982 0
-397 -682 -1087 0
-397 -682 -1102 0
-397 -967 -982 0
-397 -967 -1087 0
-397 -967 -1102 0
-397 -982 -1087 0
-397 -982 -1102 0
-397 -1087 -1102 0
-412 -667 -682 0
-412 -667 -967 0
-412 -667 -982 0
-412 -667 -1087 0
-412 -667 -1102 0
-412 -682 -967 0
-412 -682 -982 0
-412 -682 -1087 0
-412 -682 -1102 0
-412 -967 -982 0
-412 -967 -1087 0
-412 -967 -1102 0
-412 -982 -1087 0
-412 -982 -1102 0
-412 -1087 -1102 0
-667 -682 -967 0
-667 -682 -982 0
-667 -682 -1087 0
-667 -682 -1102 0
-667 -967 -982 0
-667 -967 -1087 0
-667 -967 -1102 0
-667 -982 -1087 0
-667 -982 -1102 0
-667 -1087 -1102 0
-682 -967 -982 0
-682 -967 -1087 0
-682 -967 -1102 0
-682 -982 -1087 0
-682 -982 -1102 0
-682 -1087 -1102 0
-967 -982 -1087 0
-967 -982 -1102 0
-967 -1087 -1102 0
-982 -1087 -1102 0
397 412 667 682 967 982 1087 0
397 412 667 682 967 982 1102 0
397 412 667 682 967 1087 1102 0
397 412 667 682 982 1087 1102 0
397 412 667 967 982 1087 1102 0
397 412 682 967 982 1087 1102 0
397 667 682 967 982 1087 1102 0
412 667 682 967 982 1087 1102 0
-158 -164 -182 0
-158 -164 -188 0
-158 -182 -188 0
-164 -182 -188 0
158 164 182 0
158 164 188 0
158 182 188 0
164 182 188 0
-160 -166 -184 0
-160 -166 -190 0
-160 -184 -190 0
-166 -184 -190 0
160 166 184 0
160 166 190 0
160 184 190 0
166 184 190 0
-757 -772 0
-757 -817 0
-757 -832 0
-772 -817 0
-772 -832 0
-817 -832 0
757 772 817 832 0
-26 -32 -50 0
-26 -32 -56 0
-26 -50 -56 0
-32 -50 -56 0
26 32 50 0
26 32 56 0
26 50 56 0
32 50 56 0
-29 -35 -53 0
-29 -35 -59 0
-29 -53 -59 0
-35 -53 -59 0
29 35 53 0
29 35 59 0
29 53 59 0
35 53 59 0
-428 -443 0
-428 -488 0
-428 -503 0
-443 -488 0
-443 -503 0
-488 -503 0
428 443 488 503 0
-86 -92 -194 -200 -278 0
-86 -92 -194 -200 -284 0
-86 -92 -194 -200 -326 0
-86 -92 -194 -200 -332 0
-86 -92 -194 -278 -284 0
-86 -92 -194 -278 -326 0
-86 -92 -194 -278 -332 0
-86 -92 -194 -284 -326 0
-86 -92 -194 -284 -332 0
-86 -92 -194 -326 -332 0
-86 -92 -200 -278 -284 0
-86 -92 -200 -278 -326 0
-86 -92 -200 -278 -332 0
-86 -92 -200 -284 -326 0
-86 -92 -200 -284 -332 0
-86 -92 -200 -326 -332 0
-86 -92 -278 -284 -326 0
-86 -92 -278 -284 -332 0
-86 -92 -278 -326 -332 0
-86 -92 -284 -326 -332 0
-86 -194 -200 -278 -284 0
-86 -194 -200 -278 -326 0
-86 -194 -200 -278 -332 0
-86 -194 -200 -284 -326 0
-86 -194 -200 -284 -332 0
-86 -194 -200 -326 -332 0
-86 -194 -278 -284 -326 0
-86 -194 -278 -284 -332 0
-86 -194 -278 -326 -332 0
-86 -194 -284 -326 -332 0
-86 -200 -278 -284 -326 0
-86 -200 -278 -284 -332 0
-86 -200 -278 -326 -332 0
-86 -200 -284 -326 -332 0
-86 -278 -284 -326 -332 0
-92 -194 -200 -278 -284 0
-92 -194 -200 -278 -326 0
-92 -194 -200 -278 -332 0
-92 -194 -200 -284 -326 0
-92 -194 -200 -284 -332 0
-92 -194 -200 -326 -332 0
-92 -194 -278 -284 -326 0
-92 -194 -278 -284 -332 0
-92 -194 -278 -326 -332 0
-92 -194 -284 -326 -332 0
-92 -200 -278 -284 -326 0
-92 -200 -278 -284 -332 0
-92 -200 -278 -326 -332 0
-92 -200 -284 -326 -332 0
-92 -278 -284 -326 -332 0
-194 -200 -278 -284 -326 0
-194 -200 -278 -284 -332 0
-194 -200 -278 -326 -332 0
-194 -200 -284 -326 -332 0
-194 -278 -284 -326 -332 0
-200 -278 -284 -326 -332 0
86 92 194 200 278 0
86 92 194 200 284 0
86 92 194 200 326 0
86 92 194 200 332 0
86 92 194 278 284 0
86 92 194 278 326 0
86 92 194 278 332 0
86 92 194 284 326 0
86 92 194 284 332 0
86 92 194 326 332 0
86 92 200 278 284 0
86 92 200 278 326 0
86 92 200 278 332 0
86 92 200 284 326 0
86 92 200 284 332 0
86 92 200 326 332 0
86 92 278 284 326 0
86 92 278 284 332 0
86 92 278 326 332 0
86 92 284 326 332 0
86 194 200 278 284 0
86 194 200 278 326 0
86 194 200 278 332 0
86 194 200 284 326 0
86 194 200 284 332 0
86 194 200 326 332 0
86 194 278 284 326 0
86 194 278 284 332 0
86 194 278 326 332 0
86 194 284 326 332 0
86 200 278 284 326 0
86 200 278 284 332 0
86 200 278 326 332 0
86 200 284 326 332 0
86 278 284 326 332 0
92 194 200 278 284 0
92 194 200 278 326 0
92 194 200 278 332 0
92 194 200 284 326 0
92 194 200 284 332 0
92 194 200 326 332 0
92 194 278 284 326 0
92 194 278 284 332 0
92 194 278 326 332 0
92 194 284 326 332 0
92 200 278 284 326 0
92 200 278 284 332 0
92 200 278 326 332 0
92 200 284 326 332 0
92 278 284 326 332 0
194 200 278 284 326 0
194 200 278 284 332 0
194 200 278 326 332 0
194 200 284 326 332 0
194 278 284 326 332 0
200 278 284 326 332 0
-89 -95 -197 -203 -281 0
-89 -95 -197 -203 -287 0
-89 -95 -197 -203 -329 0
-89 -95 -197 -203 -335 0
-89 -95 -197 -281 -287 0
-89 -95 -197 -281 -329 0
-89 -95 -197 -281 -335 0
-89 -95 -197 -287 -329 0
-89 -95 -197 -287 -335 0
-89 -95 -197 -329 -335 0
-89 -95 -203 -281 -287 0
-89 -95 -203 -281 -329 0
-89 -95 -203 -281 -335 0
-89 -95 -203 -287 -329 0
-89 -95 -203 -287 -335 0
-89 -95 -203 -329 -335 0
-89 -95 -281 -287 -329 0
-89 -95 -281 -287 -335 0
-89 -95 -281 -329 -335 0
-89 -95 -287 -329 -335 0
-89 -197 -203 -281 -287 0
-89 -197 -203 -281 -329 0
-89 -197 -203 -281 -335 0
-89 -197 -203 -287 -329 0
-89 -197 -203 -287 -335 0
-89 -197 -203 -329 -335 0
-89 -197 -281 -287 -329 0
-89 -197 -281 -287 -335 0
-89 -197 -281 -329 -335 0
-89 -197 -287 -329 -335 0
-89 -203 -281 -287 -329 0
-89 -203 -281 -287 -335 0
-89 -203 -281 -329 -335 0
-89 -203 -287 -329 -335 0
-89 -281 -287 -329 -335 0
-95 -197 -203 -281 -287 0
-95 -197 -203 -281 -329 0
-95 -197 -203 -281 -335 0
-95 -197 -203 -287 -329 0
-95 -197 -203 -287 -335 0
-95 -197 -203 -329 -335 0
-95 -197 -281 -287 -329 0
-95 -197 -281 -287 -335 0
-95 -197 -281 -329 -335 0
-95 -197 -287 -329 -335 0
-95 -203 -281 -287 -329 0
-95 -203 -281 -287 -335 0
-95 -203 -281 -329 -335 0
-95 -203 -287 -329 -335 0
-95 -281 -287 -329 -335 0
-197 -203 -281 -287 -329 0
-197 -203 -281 -287 -335 0
-197 -203 -281 -329 -335 0
-197 -203 -287 -329 -335 0
-197 -281 -287 -329 -335 0
-203 -281 -287 -329 -335 0
89 95 197 203 281 0
89 95 197 203 287 0
89 95 197 203 329 0
89 95 197 203 335 0
89 95 197 281 287 0
89 95 197 281 329 0
89 95 197 281 335 0
89 95 197 287 329 0
89 95 197 287 335 0
89 95 197 329 335 0
89 95 203 281 287 0
89 95 203 281 329 0
89 95 203 281 335 0
89 95 203 287 329 0
89 95 203 287 335 0
89 95 203 329 335 0
89 95 281 287 329 0
89 95 281 287 335 0
89 95 281 329 335 0
89 95 287 329 335 0
89 197 203 281 287 0
89 197 203 281 329 0
89 197 203 281 335 0
89 197 203 287 329 0
89 197 203 287 335 0
89 197 203 329 335 0
89 197 281 287 329 0
89 197 281 287 335 0
89 197 281 329 335 0
89 197 287 329 335 0
89 203 281 287 329 0
89 203 281 287 335 0
89 203 281 329 335 0
89 203 287 329 335 0
89 281 287 329 335 0
95 197 203 281 287 0
95 197 203 281 329 0
95 197 203 281 335 0
95 197 203 287 329 0
95 197 203 287 335 0
95 197 203 329 335 0
95 197 281 287 329 0
95 197 281 287 335 0
95 197 281 329 335 0
95 197 287 329 335 0
95 203 281 287 329 0
95 203 281 287 335 0
95 203 281 329 335 0
95 203 287 329 335 0
95 281 287 329 335 0
197 203 281 287 329 0
197 203 281 287 335 0
197 203 281 329 335 0
197 203 287 329 335 0
197 281 287 329 335 0
203 281 287 329 335 0
-578 -593 -848 0
-578 -593 -863 0
-578 -593 -1058 0
-578 -593 -1073 0
-578 -593 -1178 0
-578 -593 -1193 0
-578 -848 -863 0
-578 -848 -1058 0
-578 -848 -1073 0
-578 -848 -1178 0
-578 -848 -1193 0
-578 -863 -1058 0
-578 -863 -1073 0
-578 -863 -1178 0
-578 -863 -1193 0
-578 -1058 -1073 0
-578 -1058 -1178 0
-578 -1058 -1193 0
-578 -1073 -1178 0
-578 -1073 -1193 0
-578 -1178 -1193 0
-593 -848 -863 0
-593 -848 -1058 0
-593 -848 -1073 0
-593 -848 -1178 0
-593 -848 -1193 0
-593 -863 -1058 0
-593 -863 -1073 0
-593 -863 -1178 0
-593 -863 -1193 0
-593 -1058 -1073 0
-593 -1058 -1178 0
-593 -1058 -1193 0
-593 -1073 -1178 0
-593 -1073 -1193 0
-593 -1178 -1193 0
-848 -863 -1058 0
-848 -863 -1073 0
-848 -863 -1178 0
-848 -863 -1193 0
-848 -1058 -1073 0
-848 -1058 -1178 0
-848 -1058 -1193 0
-848 -1073 -1178 0
-848 -1073 -1193 0
-848 -1178 -1193 0
-863 -1058 -1073 0
-863 -1058 -1178 0
-863 -1058 -1193 0
-863 -1073 -1178 0
-863 -1073 -1193 0
-863 -1178 -1193 0
-1058 -1073 -1178 0
-1058 -1073 -1193 0
-1058 -1178 -1193 0
-1073 -1178 -1193 0
578 593 848 863 1058 1073 1178 0
578 593 848 863 1058 1073 1193 0
578 593 848 863 1058 1178 1193 0
578 593 848 863 1073 1178 1193 0
578 593 848 1058 1073 1178 1193 0
578 593 863 1058 1073 1178 1193 0
578 848 863 1058 1073 1178 1193 0
593 848 863 1058 1073 1178 1193 0
-74 -80 -170 -176 -254 0
-74 -80 -170 -176 -260 0
-74 -80 -170 -176 -350 0
-74 -80 -170 -176 -356 0
-74 -80 -170 -254 -260 0
-74 -80 -170 -254 -350 0
-74 -80 -170 -254 -356 0
-74 -80 -170 -260 -350 0
-74 -80 -170 -260 -356 0
-74 -80 -170 -350 -356 0
-74 -80 -176 -254 -260 0
-74 -80 -176 -254 -350 0
-74 -80 -176 -254 -356 0
-74 -80 -176 -260 -350 0
-74 -80 -176 -260 -356 0
-74 -80 -176 -350 -356 0
-74 -80 -254 -260 -350 0
-74 -80 -254 -260 -356 0
-74 -80 -254 -350 -356 0
-74 -80 -260 -350 -356 0
-74 -170 -176 -254 -260 0
-74 -170 -176 -254 -350 0
-74 -170 -176 -254 -356 0
-74 -170 -176 -260 -350 0
-74 -170 -176 -260 -356 0
-74 -170 -176 -350 -356 0
-74 -170 -254 -260 -350 0
-74 -170 -254 -260 -356 0
-74 -170 -254 -350 -356 0
-74 -170 -260 -350 -356 0
-74 -176 -254 -260 -350 0
-74 -176 -254 -260 -356 0
-74 -176 -254 -350 -356 0
-74 -176 -260 -350 -356 0
-74 -254 -260 -350 -356 0
-80 -170 -176 -254 -260 0
-80 -170 -176 -254 -350 0
-80 -170 -176 -254 -356 0
-80 -170 -176 -260 -350 0
-80 -170 -176 -260 -356 0
-80 -170 -176 -350 -356 0
-80 -170 -254 -260 -350 0
-80 -170 -254 -260 -356 0
-80 -170 -254 -350 -356 0
-80 -170 -260 -350 -356 0
-80 -176 -254 -260 -350 0
-80 -176 -254 -260 -356 0
-80 -176 -254 -350 -356 0
-80 -176 -260 -350 -356 0
-80 -254 -260 -350 -356 0
-170 -176 -254 -260 -350 0
-170 -176 -254 -260 -356 0
-170 -176 -254 -350 -356 0
-170 -176 -260 -350 -356 0
-170 -254 -260 -350 -356 0
-176 -254 -260 -350 -356 0
74 80 170 176 254 0
74 80 170 176 260 0
74 80 170 176 350 0
74 80 170 176 356 0
74 80 170 254 260 0
74 80 170 254 350 0
74 80 170 254 356 0
74 80 170 260 350 0
74 80 170 260 356 0
74 80 170 350 356 0
74 80 176 254 260 0
74 80 176 254 350 0
74 80 176 254 356 0
74 80 176 260 350 0
74 80 176 260 356 0
74 80 176 350 356 0
74 80 254 260 350 0
74 80 254 260 356 0
74 80 254 350 356 0
74 80 260 350 356 0
74 170 176 254 260 0
74 170 176 254 350 0
74 170 176 254 356 0
74 170 176 260 350 0
74 170 176 260 356 0
74 170 176 350 356 0
74 170 254 260 350 0
74 170 254 260 356 0
74 170 254 350 356 0
74 170 260 350 356 0
74 176 254 260 350 0
74 176 254 260 356 0
74 176 254 350 356 0
74 176 260 350 356 0
74 254 260 350 356 0
80 170 176 254 260 0
80 170 176 254 350 0
80 170 176 254 356 0
80 170 176 260 350 0
80 170 176 260 356 0
80 170 176 350 356 0
80 170 254 260 350 0
80 170 254 260 356 0
80 170 254 350 356 0
80 170 260 350 356 0
80 176 254 260 350 0
80 176 254 260 356 0
80 176 254 350 356 0
80 176 260 350 356 0
80 254 260 350 356 0
170 176 254 260 350 0
170 176 254 260 356 0
170 176 254 350 356 0
170 176 260 350 356 0
170 254 260 350 356 0
176 254 260 350 356 0
-77 -83 -173 -179 -257 0
-77 -83 -173 -179 -263 0
-77 -83 -173 -179 -353 0
-77 -83 -173 -179 -359 0
-77 -83 -173 -257 -263 0
-77 -83 -173 -257 -353 0
-77 -83 -173 -257 -359 0
-77 -83 -173 -263 -353 0
-77 -83 -173 -263 -359 0
-77 -83 -173 -353 -359 0
-77 -83 -179 -257 -263 0
-77 -83 -179 -257 -353 0
-77 -83 -179 -257 -359 0
-77 -83 -179 -263 -353 0
-77 -83 -179 -263 -359 0
-77 -83 -179 -353 -359 0
-77 -83 -257 -263 -353 0
-77 -83 -257 -263 -359 0
-77 -83 -257 -353 -359 0
-77 -83 -263 -353 -359 0
-77 -173 -179 -257 -263 0
-77 -173 -179 -257 -353 0
-77 -173 -179 -257 -359 0
-77 -173 -179 -263 -353 0
-77 -173 -179 -263 -359 0
-77 -173 -179 -353 -359 0
-77 -173 -257 -263 -353 0
-77 -173 -257 -263 -359 0
-77 -173 -257 -353 -359 0
-77 -173 -263 -353 -359 0
-77 -179 -257 -263 -353 0
-77 -179 -257 -263 -359 0
-77 -179 -257 -353 -359 0
-77 -179 -263 -353 -359 0
-77 -257 -263 -353 -359 0
-83 -173 -179 -257 -263 0
-83 -173 -179 -257 -353 0
-83 -173 -179 -257 -359 0
-83 -173 -179 -263 -353 0
-83 -173 -179 -263 -359 0
-83 -173 -179 -353 -359 0
-83 -173 -257 -263 -353 0
-83 -173 -257 -263 -359 0
-83 -173 -257 -353 -359 0
-83 -173 -263 -353 -359 0
-83 -179 -257 -263 -353 0
-83 -179 -257 -263 -359 0
-83 -179 -257 -353 -359 0
-83 -179 -263 -353 -359 0
-83 -257 -263 -353 -359 0
-173 -179 -257 -263 -353 0
-173 -179 -257 -263 -359 0
-173 -179 -257 -353 -359 0
-173 -179 -263 -353 -359 0
-173 -257 -263 -353 -359 0
-179 -257 -263 -353 -359 0
77 83 173 179 257 0
77 83 173 179 263 0
77 83 173 179 353 0
77 83 173 179 359 0
77 83 173 257 263 0
77 83 173 257 353 0
77 83 173 257 359 0
77 83 173 263 353 0
77 83 173 263 359 0
77 83 173 353 359 0
77 83 179 257 263 0
77 83 179 257 353 0
77 83 179 257 359 0
77 83 179 263 353 0
77 83 179 263 359 0
77 83 179 353 359 0
77 83 257 263 353 0
77 83 257 263 359 0
77 83 257 353 359 0
77 83 263 353 359 0
77 173 179 257 263 0
77 173 179 257 353 0
77 173 179 257 359 0
77 173 179 263 353 0
77 173 179 263 359 0
77 173 179 353 359 0
77 173 257 263 353 0
77 173 257 263 359 0
77 173 257 353 359 0
77 173 263 353 359 0
77 179 257 263 353 0
77 179 257 263 359 0
77 179 257 353 359 0
77 179 263 353 359 0
77 257 263 353 359 0
83 173 179 257 263 0
83 173 179 257 353 0
83 173 179 257 359 0
83 173 179 263 353 0
83 173 179 263 359 0
83 173 179 353 359 0
83 173 257 263 353 0
83 173 257 263 359 0
83 173 257 353 359 0
83 173 263 353 359 0
83 179 257 263 353 0
83 179 257 263 359 0
83 179 257 353 359 0
83 179 263 353 359 0
83 257 263 353 359 0
173 179 257 263 353 0
173 179 257 263 359 0
173 179 257 353 359 0
173 179 263 353 359 0
173 257 263 353 359 0
179 257 263 353 359 0
-548 -563 -788 0
-548 -563 -803 0
-548 -563 -998 0
-548 -563 -1013 0
-548 -563 -1238 0
-548 -563 -1253 0
-548 -788 -803 0
-548 -788 -998 0
-548 -788 -1013 0
-548 -788 -1238 0
-548 -788 -1253 0
-548 -803 -998 0
-548 -803 -1013 0
-548 -803 -1238 0
-548 -803 -1253 0
-548 -998 -1013 0
-548 -998 -1238 0
-548 -998 -1253 0
-548 -1013 -1238 0
-548 -1013 -1253 0
-548 -1238 -1253 0
-563 -788 -803 0
-563 -788 -998 0
-563 -788 -1013 0
-563 -788 -1238 0
-563 -788 -1253 0
-563 -803 -998 0
-563 -803 -1013 0
-563 -803 -1238 0
-563 -803 -1253 0
-563 -998 -1013 0
-563 -998 -1238 0
-563 -998 -1253 0
-563 -1013 -1238 0
-563 -1013 -1253 0
-563 -1238 -1253 0
-788 -803 -998 0
-788 -803 -1013 0
-788 -803 -1238 0
-788 -803 -1253 0
-788 -998 -1013 0
-788 -998 -1238 0
-788 -998 -1253 0
-788 -1013 -1238 0
-788 -1013 -1253 0
-788 -1238 -1253 0
-803 -998 -1013 0
-803 -998 -1238 0
-803 -998 -1253 0
-803 -1013 -1238 0
-803 -1013 -1253 0
-803 -1238 -1253 0
-998 -1013 -1238 0
-998 -1013 -1253 0
-998 -1238 -1253 0
-1013 -1238 -1253 0
548 563 788 803 998 1013 1238 0
548 563 788 803 998 1013 1253 0
548 563 788 803 998 1238 1253 0
548 563 788 803 1013 1238 1253 0
548 563 788 998 1013 1238 1253 0
548 563 803 998 1013 1238 1253 0
548 788 803 998 1013 1238 1253 0
563 788 803 998 1013 1238 1253 0
-110 -116 -206 -212 -266 0
-110 -116 -206 -212 -272 0
-110 -116 -206 -212 -302 0
-110 -116 -206 -212 -308 0
-110 -116 -206 -266 -272 0
-110 -116 -206 -266 -302 0
-110 -116 -206 -266 -308 0
-110 -116 -206 -272 -302 0
-110 -116 -206 -272 -308 0
-110 -116 -206 -302 -308 0
-110 -116 -212 -266 -272 0
-110 -116 -212 -266 -302 0
-110 -116 -212 -266 -308 0
-110 -116 -212 -272 -302 0
-110 -116 -212 -272 -308 0
-110 -116 -212 -302 -308 0
-110 -116 -266 -272 -302 0
-110 -116 -266 -272 -308 0
-110 -116 -266 -302 -308 0
-110 -116 -272 -302 -308 0
-110 -206 -212 -266 -272 0
-110 -206 -212 -266 -302 0
-110 -206 -212 -266 -308 0
-110 -206 -212 -272 -302 0
-110 -206 -212 -272 -308 0
-110 -206 -212 -302 -308 0
-110 -206 -266 -272 -302 0
-110 -206 -266 -272 -308 0
-110 -206 -266 -302 -308 0
-110 -206 -272 -302 -308 0
-110 -212 -266 -272 -302 0
-110 -212 -266 -272 -308 0
-110 -212 -266 -302 -308 0
-110 -212 -272 -302 -308 0
-110 -266 -272 -302 -308 0
-116 -206 -212 -266 -272 0
-116 -206 -212 -266 -302 0
-116 -206 -212 -266 -308 0
-116 -206 -212 -272 -302 0
-116 -206 -212 -272 -308 0
-116 -206 -212 -302 -308 0
-116 -206 -266 -272 -302 0
-116 -206 -266 -272 -308 0
-116 -206 -266 -302 -308 0
-116 -206 -272 -302 -308 0
-116 -212 -266 -272 -302 0
-116 -212 -266 -272 -308 0
-116 -212 -266 -302 -308 0
-116 -212 -272 -302 -308 0
-116 -266 -272 -302 -308 0
-206 -212 -266 -272 -302 0
-206 -212 -266 -272 -308 0
-206 -212 -266 -302 -308 0
-206 -212 -272 -302 -308 0
-206 -266 -272 -302 -308 0
-212 -266 -272 -302 -308 0
110 116 206 212 266 0
110 116 206 212 272 0
110 116 206 212 302 0
110 116 206 212 308 0
110 116 206 266 272 0
110 116 206 266 302 0
110 116 206 266 308 0
110 116 206 272 302 0
110 116 206 272 308 0
110 116 206 302 308 0
110 116 212 266 272 0
110 116 212 266 302 0
110 116 212 266 308 0
110 116 212 272 302 0
110 116 212 272 308 0
110 116 212 302 308 0
110 116 266 272 302 0
110 116 266 272 308 0
110 116 266 302 308 0
110 116 272 302 308 0
110 206 212 266 272 0
110 206 212 266 302 0
110 206 212 266 308 0
110 206 212 272 302 0
110 206 212 272 308 0
110 206 212 302 308 0
110 206 266 272 302 0
110 206 266 272 308 0
110 206 266 302 308 0
110 206 272 302 308 0
110 212 266 272 302 0
110 212 266 272 308 0
110 212 266 302 308 0
110 212 272 302 308 0
110 266 272 302 308 0
116 206 212 266 272 0
116 206 212 266 302 0
116 206 212 266 308 0
116 206 212 272 302 0
116 206 212 272 308 0
116 206 212 302 308 0
116 206 266 272 302 0
116 206 266 272 308 0
116 206 266 302 308 0
116 206 272 302 308 0
116 212 266 272 302 0
116 212 266 272 308 0
116 212 266 302 308 0
116 212 272 302 308 0
116 266 272 302 308 0
206 212 266 272 302 0
206 212 266 272 308 0
206 212 266 302 308 0
206 212 272 302 308 0
206 266 272 302 308 0
212 266 272 302 308 0
-113 -119 -209 -215 -269 0
-113 -119 -209 -215 -275 0
-113 -119 -209 -215 -305 0
-113 -119 -209 -215 -311 0
-113 -119 -209 -269 -275 0
-113 -119 -209 -269 -305 0
-113 -119 -209 -269 -311 0
-113 -119 -209 -275 -305 0
-113 -119 -209 -275 -311 0
-113 -119 -209 -305 -311 0
-113 -119 -215 -269 -275 0
-113 -119 -215 -269 -305 0
-113 -119 -215 -269 -311 0
-113 -119 -215 -275 -305 0
-113 -119 -215 -275 -311 0
-113 -119 -215 -305 -311 0
-113 -119 -269 -275 -305 0
-113 -119 -269 -275 -311 0
-113 -119 -269 -305 -311 0
-113 -119 -275 -305 -311 0
-113 -209 -215 -269 -275 0
-113 -209 -215 -269 -305 0
-113 -209 -215 -269 -311 0
-113 -209 -215 -275 -305 0
-113 -209 -215 -275 -311 0
-113 -209 -215 -305 -311 0
-113 -209 -269 -275 -305 0
-113 -209 -269 -275 -311 0
-113 -209 -269 -305 -311 0
-113 -209 -275 -305 -311 0
-113 -215 -269 -275 -305 0
-113 -215 -269 -275 -311 0
-113 -215 -269 -305 -311 0
-113 -215 -275 -305 -311 0
-113 -269 -275 -305 -311 0
-119 -209 -215 -269 -275 0
-119 -209 -215 -269 -305 0
-119 -209 -215 -269 -311 0
-119 -209 -215 -275 -305 0
-119 -209 -215 -275 -311 0
-119 -209 -215 -305 -311 0
-119 -209 -269 -275 -305 0
-119 -209 -269 -275 -311 0
-119 -209 -269 -305 -311 0
-119 -209 -275 -305 -311 0
-119 -215 -269 -275 -305 0
-119 -215 -269 -275 -311 0
-119 -215 -269 -305 -311 0
-119 -215 -275 -305 -311 0
-119 -269 -275 -305 -311 0
-209 -215 -269 -275 -305 0
-209 -215 -269 -275 -311 0
-209 -215 -269 -305 -311 0
-209 -215 -275 -305 -311 0
-209 -269 -275 -305 -311 0
-215 -269 -275 -305 -311 0
113 119 209 215 269 0
113 119 209 215 275 0
113 119 209 215 305 0
113 119 209 215 311 0
113 119 209 269 275 0
113 119 209 269 305 0
113 119 209 269 311 0
113 119 209 275 305 0
113 119 209 275 311 0
113 119 209 305 311 0
113 119 215 269 275 0
113 119 215 269 305 0
113 119 215 269 311 0
113 119 215 275 305 0
113 119 215 275 311 0
113 119 215 305 311 0
113 119 269 275 305 0
113 119 269 275 311 0
113 119 269 305 311 0
113 119 275 305 311 0
113 209 215 269 275 0
113 209 215 269 305 0
113 209 215 269 311 0
113 209 215 275 305 0
113 209 215 275 311 0
113 209 215 305 311 0
113 209 269 275 305 0
113 209 269 275 311 0
113 209 269 305 311 0
113 209 275 305 311 0
113 215 269 275 305 0
113 215 269 275 311 0
113 215 269 305 311 0
113 215 275 305 311 0
113 269 275 305 311 0
119 209 215 269 275 0
119 209 215 269 305 0
119 209 215 269 311 0
119 209 215 275 305 0
119 209 215 275 311 0
119 209 215 305 311 0
119 209 269 275 305 0
119 209 269 275 311 0
119 209 269 305 311 0
119 209 275 305 311 0
119 215 269 275 305 0
119 215 269 275 311 0
119 215 269 305 311 0
119 215 275 305 311 0
119 269 275 305 311 0
209 215 269 275 305 0
209 215 269 275 311 0
209 215 269 305 311 0
209 215 275 305 311 0
209 269 275 305 311 0
215 269 275 305 311 0
-638 -653 -878 0
-638 -653 -893 0
-638 -653 -1028 0
-638 -653 -1043 0
-638 -653 -1118 0
-638 -653 -1133 0
-638 -878 -893 0
-638 -878 -1028 0
-638 -878 -1043 0
-638 -878 -1118 0
-638 -878 -1133 0
-638 -893 -1028 0
-638 -893 -1043 0
-638 -893 -1118 0
-638 -893 -1133 0
-638 -1028 -1043 0
-638 -1028 -1118 0
-638 -1028 -1133 0
-638 -1043 -1118 0
-638 -1043 -1133 0
-638 -1118 -1133 0
-653 -878 -893 0
-653 -878 -1028 0
-653 -878 -1043 0
-653 -878 -1118 0
-653 -878 -1133 0
-653 -893 -1028 0
-653 -893 -1043 0
-653 -893 -1118 0
-653 -893 -1133 0
-653 -1028 -1043 0
-653 -1028 -1118 0
-653 -1028 -1133 0
-653 -1043 -1118 0
-653 -1043 -1133 0
-653 -1118 -1133 0
-878 -893 -1028 0
-878 -893 -1043 0
-878 -893 -1118 0
-878 -893 -1133 0
-878 -1028 -1043 0
-878 -1028 -1118 0
-878 -1028 -1133 0
-878 -1043 -1118 0
-878 -1043 -1133 0
-878 -1118 -1133 0
-893 -1028 -1043 0
-893 -1028 -1118 0
-893 -1028 -1133 0
-893 -1043 -1118 0
-893 -1043 -1133 0
-893 -1118 -1133 0
-1028 -1043 -1118 0
-1028 -1043 -1133 0
-1028 -1118 -1133 0
-1043 -1118 -1133 0
638 653 878 893 1028 1043 1118 0
638 653 878 893 1028 1043 1133 0
638 653 878 893 1028 1118 1133 0
638 653 878 893 1043 1118 1133 0
638 653 878 1028 1043 1118 1133 0
638 653 893 1028 1043 1118 1133 0
638 878 893 1028 1043 1118 1133 0
653 878 893 1028 1043 1118 1133 0
-2 -8 -62 0
-2 -8 -68 0
-2 -62 -68 0
-8 -62 -68 0
2 8 62 0
2 8 68 0
2 62 68 0
8 62 68 0
-5 -11 -65 0
-5 -11 -71 0
-5 -65 -71 0
-11 -65 -71 0
5 11 65 0
5 11 71 0
5 65 71 0
11 65 71 0
-368 -383 0
-368 -518 0
-368 -533 0
-383 -518 0
-383 -533 0
-518 -533 0
368 383 518 533 0
-98 -104 -146 -152 -230 0
-98 -104 -146 -152 -236 0
-98 -104 -146 -152 -338 0
-98 -104 -146 -152 -344 0
-98 -104 -146 -230 -236 0
-98 -104 -146 -230 -338 0
-98 -104 -146 -230 -344 0
-98 -104 -146 -236 -338 0
-98 -104 -146 -236 -344 0
-98 -104 -146 -338 -344 0
-98 -104 -152 -230 -236 0
-98 -104 -152 -230 -338 0
-98 -104 -152 -230 -344 0
-98 -104 -152 -236 -338 0
-98 -104 -152 -236 -344 0
-98 -104 -152 -338 -344 0
-98 -104 -230 -236 -338 0
-98 -104 -230 -236 -344 0
-98 -104 -230 -338 -344 0
-98 -104 -236 -338 -344 0
-98 -146 -152 -230 -236 0
-98 -146 -152 -230 -338 0
-98 -146 -152 -230 -344 0
-98 -146 -152 -236 -338 0
-98 -146 -152 -236 -344 0
-98 -146 -152 -338 -344 0
-98 -146 -230 -236 -338 0
-98 -146 -230 -236 -344 0
-98 -146 -230 -338 -344 0
-98 -146 -236 -338 -344 0
-98 -152 -230 -236 -338 0
-98 -152 -230 -236 -344 0
-98 -152 -230 -338 -344 0
-98 -152 -236 -338 -344 0
-98 -230 -236 -338 -344 0
-104 -146 -152 -230 -236 0
-104 -146 -152 -230 -338 0
-104 -146 -152 -230 -344 0
-104 -146 -152 -236 -338 0
-104 -146 -152 -236 -344 0
-104 -146 -152 -338 -344 0
-104 -146 -230 -236 -338 0
-104 -146 -230 -236 -344 0
-104 -146 -230 -338 -344 0
-104 -146 -236 -338 -344 0
-104 -152 -230 -236 -338 0
-104 -152 -230 -236 -344 0
-104 -152 -230 -338 -344 0
-104 -152 -236 -338 -344 0
-104 -230 -236 -338 -344 0
-146 -152 -230 -236 -338 0
-146 -152 -230 -236 -344 0
-146 -152 -230 -338 -344 0
-146 -152 -236 -338 -344 0
-146 -230 -236 -338 -344 0
-152 -230 -236 -338 -344 0
98 104 146 152 230 0
98 104 146 152 236 0
98 104 146 152 338 0
98 104 146 152 344 0
98 104 146 230 236 0
98 104 146 230 338 0
98 104 146 230 344 0
98 104 146 236 338 0
98 104 146 236 344 0
98 104 146 338 344 0
98 104 152 230 236 0
98 104 152 230 338 0
98 104 152 230 344 0
98 104 152 236 338 0
98 104 152 236 344 0
98 104 152 338 344 0
98 104 230 236 338 0
98 104 230 236 344 0
98 104 230 338 344 0
98 104 236 338 344 0
98 146 152 230 236 0
98 146 152 230 338 0
98 146 152 230 344 0
98 146 152 236 338 0
98 146 152 236 344 0
98 146 152 338 344 0
98 146 230 236 338 0
98 146 230 236 344 0
98 146 230 338 344 0
98 146 236 338 344 0
98 152 230 236 338 0
98 152 230 236 344 0
98 152 230 338 344 0
98 152 236 338 344 0
98 230 236 338 344 0
104 146 152 230 236 0
104 146 152 230 338 0
104 146 152 230 344 0
104 146 152 236 338 0
104 146 152 236 344 0
104 146 152 338 344 0
104 146 230 236 338 0
104 146 230 236 344 0
104 146 230 338 344 0
104 146 236 338 344 0
104 152 230 236 338 0
104 152 230 236 344 0
104 152 230 338 344 0
104 152 236 338 344 0
104 230 236 338 344 0
146 152 230 236 338 0
146 152 230 236 344 0
146 152 230 338 344 0
146 152 236 338 344 0
146 230 236 338 344 0
152 230 236 338 344 0
-101 -107 -149 -155 -233 0
-101 -107 -149 -155 -239 0
-101 -107 -149 -155 -341 0
-101 -107 -149 -155 -347 0
-101 -107 -149 -233 -239 0
-101 -107 -149 -233 -341 0
-101 -107 -149 -233 -347 0
-101 -107 -149 -239 -341 0
-101 -107 -149 -239 -347 0
-101 -107 -149 -341 -347 0
-101 -107 -155 -233 -239 0
-101 -107 -155 -233 -341 0
-101 -107 -155 -233 -347 0
-101 -107 -155 -239 -341 0
-101 -107 -155 -239 -347 0
-101 -107 -155 -341 -347 0
-101 -107 -233 -239 -341 0
-101 -107 -233 -239 -347 0
-101 -107 -233 -341 -347 0
-101 -107 -239 -341 -347 0
-101 -149 -155 -233 -239 0
-101 -149 -155 -233 -341 0
-101 -149 -155 -233 -347 0
-101 -149 -155 -239 -341 0
-101 -149 -155 -239 -347 0
-101 -149 -155 -341 -347 0
-101 -149 -233 -239 -341 0
-101 -149 -233 -239 -347 0
-101 -149 -233 -341 -347 0
-101 -149 -239 -341 -347 0
-101 -155 -233 -239 -341 0
-101 -155 -233 -239 -347 0
-101 -155 -233 -341 -347 0
-101 -155 -239 -341 -347 0
-101 -233 -239 -341 -347 0
-107 -149 -155 -233 -239 0
-107 -149 -155 -233 -341 0
-107 -149 -155 -233 -347 0
-107 -149 -155 -239 -341 0
-107 -149 -155 -239 -347 0
-107 -149 -155 -341 -347 0
-107 -149 -233 -239 -341 0
-107 -149 -233 -239 -347 0
-107 -149 -233 -341 -347 0
-107 -149 -239 -341 -347 0
-107 -155 -233 -239 -341 0
-107 -155 -233 -239 -347 0
-107 -155 -233 -341 -347 0
-107 -155 -239 -341 -347 0
-107 -233 -239 -341 -347 0
-149 -155 -233 -239 -341 0
-149 -155 -233 -239 -347 0
-149 -155 -233 -341 -347 0
-149 -155 -239 -341 -347 0
-149 -233 -239 -341 -347 0
-155 -233 -239 -341 -347 0
101 107 149 155 233 0
101 107 149 155 239 0
101 107 149 155 341 0
101 107 149 155 347 0
101 107 149 233 239 0
101 107 149 233 341 0
101 107 149 233 347 0
101 107 149 239 341 0
101 107 149 239 347 0
101 107 149 341 347 0
101 107 155 233 239 0
101 107 155 233 341 0
101 107 155 233 347 0
101 107 155 239 341 0
101 107 155 239 347 0
101 107 155 341 347 0
101 107 233 239 341 0
101 107 233 239 347 0
101 107 233 341 347 0
101 107 239 341 347 0
101 149 155 233 239 0
101 149 155 233 341 0
101 149 155 233 347 0
101 149 155 239 341 0
101 149 155 239 347 0
101 149 155 341 347 0
101 149 233 239 341 0
101 149 233 239 347 0
101 149 233 341 347 0
101 149 239 341 347 0
101 155 233 239 341 0
101 155 233 239 347 0
101 155 233 341 347 0
101 155 239 341 347 0
101 233 239 341 347 0
107 149 155 233 239 0
107 149 155 233 341 0
107 149 155 233 347 0
107 149 155 239 341 0
107 149 155 239 347 0
107 149 155 341 347 0
107 149 233 239 341 0
107 149 233 239 347 0
107 149 233 341 347 0
107 149 239 341 347 0
107 155 233 239 341 0
107 155 233 239 347 0
107 155 233 341 347 0
107 155 239 341 347 0
107 233 239 341 347 0
149 155 233 239 341 0
149 155 233 239 347 0
149 155 233 341 347 0
149 155 239 341 347 0
149 233 239 341 347 0
155 233 239 341 347 0
-608 -623 -728 0
-608 -623 -743 0
-608 -623 -938 0
-608 -623 -953 0
-608 -623 -1208 0
-608 -623 -1223 0
-608 -728 -743 0
-608 -728 -938 0
-608 -728 -953 0
-608 -728 -1208 0
-608 -728 -1223 0
-608 -743 -938 0
-608 -743 -953 0
-608 -743 -1208 0
-608 -743 -1223 0
-608 -938 -953 0
-608 -938 -1208 0
-608 -938 -1223 0
-608 -953 -1208 0
-608 -953 -1223 0
-608 -1208 -1223 0
-623 -728 -743 0
-623 -728 -938 0
-623 -728 -953 0
-623 -728 -1208 0
-623 -728 -1223 0
-623 -743 -938 0
-623 -743 -953 0
-623 -743 -1208 0
-623 -743 -1223 0
-623 -938 -953 0
-623 -938 -1208 0
-623 -938 -1223 0
-623 -953 -1208 0
-623 -953 -1223 0
-623 -1208 -1223 0
-728 -743 -938 0
-728 -743 -953 0
-728 -743 -1208 0
-728 -743 -1223 0
-728 -938 -953 0
-728 -938 -1208 0
-728 -938 -1223 0
-728 -953 -1208 0
-728 -953 -1223 0
-728 -1208 -1223 0
-743 -938 -953 0
-743 -938 -1208 0
-743 -938 -1223 0
-743 -953 -1208 0
-743 -953 -1223 0
-743 -1208 -1223 0
-938 -953 -1208 0
-938 -953 -1223 0
-938 -1208 -1223 0
-953 -1208 -1223 0
608 623 728 743 938 953 1208 0
608 623 728 743 938 953 1223 0
608 623 728 743 938 1208 1223 0
608 623 728 743 953 1208 1223 0
608 623 728 938 953 1208 1223 0
608 623 743 938 953 1208 1223 0
608 728 743 938 953 1208 1223 0
623 728 743 938 953 1208 1223 0
-134 -140 -182 -188 -242 0
-134 -140 -182 -188 -248 0
-134 -140 -182 -188 -290 0
-134 -140 -182 -188 -296 0
-134 -140 -182 -242 -248 0
-134 -140 -182 -242 -290 0
-134 -140 -182 -242 -296 0
-134 -140 -182 -248 -290 0
-134 -140 -182 -248 -296 0
-134 -140 -182 -290 -296 0
-134 -140 -188 -242 -248 0
-134 -140 -188 -242 -290 0
-134 -140 -188 -242 -296 0
-134 -140 -188 -248 -290 0
-134 -140 -188 -248 -296 0
-134 -140 -188 -290 -296 0
-134 -140 -242 -248 -290 0
-134 -140 -242 -248 -296 0
-134 -140 -242 -290 -296 0
-134 -140 -248 -290 -296 0
-134 -182 -188 -242 -248 0
-134 -182 -188 -242 -290 0
-134 -182 -188 -242 -296 0
-134 -182 -188 -248 -290 0
-134 -182 -188 -248 -296 0
-134 -182 -188 -290 -296 0
-134 -182 -242 -248 -290 0
-134 -182 -242 -248 -296 0
-134 -182 -242 -290 -296 0
-134 -182 -248 -290 -296 0
-134 -188 -242 -248 -290 0
-134 -188 -242 -248 -296 0
-134 -188 -242 -290 -296 0
-134 -188 -248 -290 -296 0
-134 -242 -248 -290 -296 0
-140 -182 -188 -242 -248 0
-140 -182 -188 -242 -290 0
-140 -182 -188 -242 -296 0
-140 -182 -188 -248 -290 0
-140 -182 -188 -248 -296 0
-140 -182 -188 -290 -296 0
-140 -182 -242 -248 -290 0
-140 -182 -242 -248 -296 0
-140 -182 -242 -290 -296 0
-140 -182 -248 -290 -296 0
-140 -188 -242 -248 -290 0
-140 -188 -242 -248 -296 0
-140 -188 -242 -290 -296 0
-140 -188 -248 -290 -296 0
-140 -242 -248 -290 -296 0
-182 -188 -242 -248 -290 0
-182 -188 -242 -248 -296 0
-182 -188 -242 -290 -296 0
-182 -188 -248 -290 -296 0
-182 -242 -248 -290 -296 0
-188 -242 -248 -290 -296 0
134 140 182 188 242 0
134 140 182 188 248 0
134 140 182 188 290 0
134 140 182 188 296 0
134 140 182 242 248 0
134 140 182 242 290 0
134 140 182 242 296 0
134 140 182 248 290 0
134 140 182 248 296 0
134 140 182 290 296 0
134 140 188 242 248 0
134 140 188 242 290 0
134 140 188 242 296 0
134 140 188 248 290 0
134 140 188 248 296 0
134 140 188 290 296 0
134 140 242 248 290 0
134 140 242 248 296 0
134 140 242 290 296 0
134 140 248 290 296 0
134 182 188 242 248 0
134 182 188 242 290 0
134 182 188 242 296 0
134 182 188 248 290 0
134 182 188 248 296 0
134 182 188 290 296 0
134 182 242 248 290 0
134 182 242 248 296 0
134 182 242 290 296 0
134 182 248 290 296 0
134 188 242 248 290 0
134 188 242 248 296 0
134 188 242 290 296 0
134 188 248 290 296 0
134 242 248 290 296 0
140 182 188 242 248 0
140 182 188 242 290 0
140 182 188 242 296 0
140 182 188 248 290 0
140 182 188 248 296 0
140 182 188 290 296 0
140 182 242 248 290 0
140 182 242 248 296 0
140 182 242 290 296 0
140 182 248 290 296 0
140 188 242 248 290 0
140 188 242 248 296 0
140 188 242 290 296 0
140 188 248 290 296 0
140 242 248 290 296 0
182 188 242 248 290 0
182 188 242 248 296 0
182 188 242 290 296 0
182 188 248 290 296 0
182 242 248 290 296 0
188 242 248 290 296 0
-137 -143 -185 -191 -245 0
-137 -143 -185 -191 -251 0
-137 -143 -185 -191 -293 0
-137 -143 -185 -191 -299 0
-137 -143 -185 -245 -251 0
-137 -143 -185 -245 -293 0
-137 -143 -185 -245 -299 0
-137 -143 -185 -251 -293 0
-137 -143 -185 -251 -299 0
-137 -143 -185 -293 -299 0
-137 -143 -191 -245 -251 0
-137 -143 -191 -245 -293 0
-137 -143 -191 -245 -299 0
-137 -143 -191 -251 -293 0
-137 -143 -191 -251 -299 0
-137 -143 -191 -293 -299 0
-137 -143 -245 -251 -293 0
-137 -143 -245 -251 -299 0
-137 -143 -245 -293 -299 0
-137 -143 -251 -293 -299 0
-137 -185 -191 -245 -251 0
-137 -185 -191 -245 -293 0
-137 -185 -191 -245 -299 0
-137 -185 -191 -251 -293 0
-137 -185 -191 -251 -299 0
-137 -185 -191 -293 -299 0
-137 -185 -245 -251 -293 0
-137 -185 -245 -251 -299 0
-137 -185 -245 -293 -299 0
-137 -185 -251 -293 -299 0
-137 -191 -245 -251 -293 0
-137 -191 -245 -251 -299 0
-137 -191 -245 -293 -299 0
-137 -191 -251 -293 -299 0
-137 -245 -251 -293 -299 0
-143 -185 -191 -245 -251 0
-143 -185 -191 -245 -293 0
-143 -185 -191 -245 -299 0
-143 -185 -191 -251 -293 0
-143 -185 -191 -251 -299 0
-143 -185 -191 -293 -299 0
-143 -185 -245 -251 -293 0
-143 -185 -245 -251 -299 0
-143 -185 -245 -293 -299 0
-143 -185 -251 -293 -299 0
-143 -191 -245 -251 -293 0
-143 -191 -245 -251 -299 0
-143 -191 -245 -293 -299 0
-143 -191 -251 -293 -299 0
-143 -245 -251 -293 -299 0
-185 -191 -245 -251 -293 0
-185 -191 -245 -251 -299 0
-185 -191 -245 -293 -299 0
-185 -191 -251 -293 -299 0
-185 -245 -251 -293 -299 0
-191 -245 -251 -293 -299 0
137 143 185 191 245 0
137 143 185 191 251 0
137 143 185 191 293 0
137 143 185 191 299 0
137 143 185 245 251 0
137 143 185 245 293 0
137 143 185 245 299 0
137 143 185 251 293 0
137 143 185 251 299 0
137 143 185 293 299 0
137 143 191 245 251 0
137 143 191 245 293 0
137 143 191 245 299 0
137 143 191 251 293 0
137 143 191 251 299 0
137 143 191 293 299 0
137 143 245 251 293 0
137 143 245 251 299 0
137 143 245 293 299 0
137 143 251 293 299 0
137 185 191 245 251 0
137 185 191 245 293 0
137 185 191 245 299 0
137 185 191 251 293 0
137 185 191 251 299 0
137 185 191 293 299 0
137 185 245 251 293 0
137 185 245 251 299 0
137 185 245 293 299 0
137 185 251 293 299 0
137 191 245 251 293 0
137 191 245 251 299 0
137 191 245 293 299 0
137 191 251 293 299 0
137 245 251 293 299 0
143 185 191 245 251 0
143 185 191 245 293 0
143 185 191 245 299 0
143 185 191 251 293 0
143 185 191 251 299 0
143 185 191 293 299 0
143 185 245 251 293 0
143 185 245 251 299 0
143 185 245 293 299 0
143 185 251 293 299 0
143 191 245 251 293 0
143 191 245 251 299 0
143 191 245 293 299 0
143 191 251 293 299 0
143 245 251 293 299 0
185 191 245 251 293 0
185 191 245 251 299 0
185 191 245 293 299 0
185 191 251 293 299 0
185 245 251 293 299 0
191 245 251 293 299 0
-698 -713 -818 0
-698 -713 -833 0
-698 -713 -968 0
-698 -713 -983 0
-698 -713 -1088 0
-698 -713 -1103 0
-698 -818 -833 0
-698 -818 -968 0
-698 -818 -983 0
-698 -818 -1088 0
-698 -818 -1103 0
-698 -833 -968 0
-698 -833 -983 0
-698 -833 -1088 0
-698 -833 -1103 0
-698 -968 -983 0
-698 -968 -1088 0
-698 -968 -1103 0
-698 -983 -1088 0
-698 -983 -1103 0
-698 -1088 -1103 0
-713 -818 -833 0
-713 -818 -968 0
-713 -818 -983 0
-713 -818 -1088 0
-713 -818 -1103 0
-713 -833 -968 0
-713 -833 -983 0
-713 -833 -1088 0
-713 -833 -1103 0
-713 -968 -983 0
-713 -968 -1088 0
-713 -968 -1103 0
-713 -983 -1088 0
-713 -983 -1103 0
-713 -1088 -1103 0
-818 -833 -968 0
-818 -833 -983 0
-818 -833 -1088 0
-818 -833 -1103 0
-818 -968 -983 0
-818 -968 -1088 0
-818 -968 -1103 0
-818 -983 -1088 0
-818 -983 -1103 0
-818 -1088 -1103 0
-833 -968 -983 0
-833 -968 -1088 0
-833 -968 -1103 0
-833 -983 -1088 0
-833 -983 -1103 0
-833 -1088 -1103 0
-968 -983 -1088 0
-968 -983 -1103 0
-968 -1088 -1103 0
-983 -1088 -1103 0
698 713 818 833 968 983 1088 0
698 713 818 833 968 983 1103 0
698 713 818 833 968 1088 1103 0
698 713 818 833 983 1088 1103 0
698 713 818 968 983 1088 1103 0
698 713 833 968 983 1088 1103 0
698 818 833 968 983 1088 1103 0
713 818 833 968 983 1088 1103 0
-122 -128 -158 -164 -218 0
-122 -128 -158 -164 -224 0
-122 -128 -158 -164 -314 0
-122 -128 -158 -164 -320 0
-122 -128 -158 -218 -224 0
-122 -128 -158 -218 -314 0
-122 -128 -158 -218 -320 0
-122 -128 -158 -224 -314 0
-122 -128 -158 -224 -320 0
-122 -128 -158 -314 -320 0
-122 -128 -164 -218 -224 0
-122 -128 -164 -218 -314 0
-122 -128 -164 -218 -320 0
-122 -128 -164 -224 -314 0
-122 -128 -164 -224 -320 0
-122 -128 -164 -314 -320 0
-122 -128 -218 -224 -314 0
-122 -128 -218 -224 -320 0
-122 -128 -218 -314 -320 0
-122 -128 -224 -314 -320 0
-122 -158 -164 -218 -224 0
-122 -158 -164 -218 -314 0
-122 -158 -164 -218 -320 0
-122 -158 -164 -224 -314 0
-122 -158 -164 -224 -320 0
-122 -158 -164 -314 -320 0
-122 -158 -218 -224 -314 0
-122 -158 -218 -224 -320 0
-122 -158 -218 -314 -320 0
-122 -158 -224 -314 -320 0
-122 -164 -218 -224 -314 0
-122 -164 -218 -224 -320 0
-122 -164 -218 -314 -320 0
-122 -164 -224 -314 -320 0
-122 -218 -224 -314 -320 0
-128 -158 -164 -218 -224 0
-128 -158 -164 -218 -314 0
-128 -158 -164 -218 -320 0
-128 -158 -164 -224 -314 0
-128 -158 -164 -224 -320 0
-128 -158 -164 -314 -320 0
-128 -158 -218 -224 -314 0
-128 -158 -218 -224 -320 0
-128 -158 -218 -314 -320 0
-128 -158 -224 -314 -320 0
-128 -164 -218 -224 -314 0
-128 -164 -218 -224 -320 0
-128 -164 -218 -314 -320 0
-128 -164 -224 -314 -320 0
-128 -218 -224 -314 -320 0
-158 -164 -218 -224 -314 0
-158 -164 -218 -224 -320 0
-158 -164 -218 -314 -320 0
-158 -164 -224 -314 -320 0
-158 -218 -224 -314 -320 0
-164 -218 -224 -314 -320 0
122 128 158 164 218 0
122 128 158 164 224 0
122 128 158 164 314 0
122 128 158 164 320 0
122 128 158 218 224 0
122 128 158 218 314 0
122 128 158 218 320 0
122 128 158 224 314 0
122 128 158 224 320 0
122 128 158 314 320 0
122 128 164 218 224 0
122 128 164 218 314 0
122 128 164 218 320 0
122 128 164 224 314 0
122 128 164 224 320 0
122 128 164 314 320 0
122 128 218 224 314 0
122 128 218 224 320 0
122 128 218 314 320 0
122 128 224 314 320 0
122 158 164 218 224 0
122 158 164 218 314 0
122 158 164 218 320 0
122 158 164 224 314 0
122 158 164 224 320 0
122 158 164 314 320 0
122 158 218 224 314 0
122 158 218 224 320 0
122 158 218 314 320 0
122 158 224 314 320 0
122 164 218 224 314 0
122 164 218 224 320 0
122 164 218 314 320 0
122 164 224 314 320 0
122 218 224 314 320 0
128 158 164 218 224 0
128 158 164 218 314 0
128 158 164 218 320 0
128 158 164 224 314 0
128 158 164 224 320 0
128 158 164 314 320 0
128 158 218 224 314 0
128 158 218 224 320 0
128 158 218 314 320 0
128 158 224 314 320 0
128 164 218 224 314 0
128 164 218 224 320 0
128 164 218 314 320 0
128 164 224 314 320 0
128 218 224 314 320 0
158 164 218 224 314 0
158 164 218 224 320 0
158 164 218 314 320 0
158 164 224 314 320 0
158 218 224 314 320 0
164 218 224 314 320 0
-125 -131 -161 -167 -221 0
-125 -131 -161 -167 -227 0
-125 -131 -161 -167 -317 0
-125 -131 -161 -167 -323 0
-125 -131 -161 -221 -227 0
-125 -131 -161 -221 -317 0
-125 -131 -161 -221 -323 0
-125 -131 -161 -227 -317 0
-125 -131 -161 -227 -323 0
-125 -131 -161 -317 -323 0
-125 -131 -167 -221 -227 0
-125 -131 -167 -221 -317 0
-125 -131 -167 -221 -323 0
-125 -131 -167 -227 -317 0
-125 -131 -167 -227 -323 0
-125 -131 -167 -317 -323 0
-125 -131 -221 -227 -317 0
-125 -131 -221 -227 -323 0
-125 -131 -221 -317 -323 0
-125 -131 -227 -317 -323 0
-125 -161 -167 -221 -227 0
-125 -161 -167 -221 -317 0
-125 -161 -167 -221 -323 0
-125 -161 -167 -227 -317 0
-125 -161 -167 -227 -323 0
-125 -161 -167 -317 -323 0
-125 -161 -221 -227 -317 0
-125 -161 -221 -227 -323 0
-125 -161 -221 -317 -323 0
-125 -161 -227 -317 -323 0
-125 -167 -221 -227 -317 0
-125 -167 -221 -227 -323 0
-125 -167 -221 -317 -323 0
-125 -167 -227 -317 -323 0
-125 -221 -227 -317 -323 0
-131 -161 -167 -221 -227 0
-131 -161 -167 -221 -317 0
-131 -161 -167 -221 -323 0
-131 -161 -167 -227 -317 0
-131 -161 -167 -227 -323 0
-131 -161 -167 -317 -323 0
-131 -161 -221 -227 -317 0
-131 -161 -221 -227 -323 0
-131 -161 -221 -317 -323 0
-131 -161 -227 -317 -323 0
-131 -167 -221 -227 -317 0
-131 -167 -221 -227 -323 0
-131 -167 -221 -317 -323 0
-131 -167 -227 -317 -323 0
-131 -221 -227 -317 -323 0
-161 -167 -221 -227 -317 0
-161 -167 -221 -227 -323 0
-161 -167 -221 -317 -323 0
-161 -167 -227 -317 -323 0
-161 -221 -227 -317 -323 0
-167 -221 -227 -317 -323 0
125 131 161 167 221 0
125 131 161 167 227 0
125 131 161 167 317 0
125 131 161 167 323 0
125 131 161 221 227 0
125 131 161 221 317 0
125 131 161 221 323 0
125 131 161 227 317 0
125 131 161 227 323 0
125 131 161 317 323 0
125 131 167 221 227 0
125 131 167 221 317 0
125 131 167 221 323 0
125 131 167 227 317 0
125 131 167 227 323 0
125 131 167 317 323 0
125 131 221 227 317 0
125 131 221 227 323 0
125 131 221 317 323 0
125 131 227 317 323 0
125 161 167 221 227 0
125 161 167 221 317 0
125 161 167 221 323 0
125 161 167 227 317 0
125 161 167 227 323 0
125 161 167 317 323 0
125 161 221 227 317 0
125 161 221 227 323 0
125 161 221 317 323 0
125 161 227 317 323 0
125 167 221 227 317 0
125 167 221 227 323 0
125 167 221 317 323 0
125 167 227 317 323 0
125 221 227 317 323 0
131 161 167 221 227 0
131 161 167 221 317 0
131 161 167 221 323 0
131 161 167 227 317 0
131 161 167 227 323 0
131 161 167 317 323 0
131 161 221 227 317 0
131 161 221 227 323 0
131 161 221 317 323 0
131 161 227 317 323 0
131 167 221 227 317 0
131 167 221 227 323 0
131 167 221 317 323 0
131 167 227 317 323 0
131 221 227 317 323 0
161 167 221 227 317 0
161 167 221 227 323 0
161 167 221 317 323 0
161 167 227 317 323 0
161 221 227 317 323 0
167 221 227 317 323 0
-668 -683 -758 0
-668 -683 -773 0
-668 -683 -908 0
-668 -683 -923 0
-668 -683 -1148 0
-668 -683 -1163 0
-668 -758 -773 0
-668 -758 -908 0
-668 -758 -923 0
-668 -758 -1148 0
-668 -758 -1163 0
-668 -773 -908 0
-668 -773 -923 0
-668 -773 -1148 0
-668 -773 -1163 0
-668 -908 -923 0
-668 -908 -1148 0
-668 -908 -1163 0
-668 -923 -1148 0
-668 -923 -1163 0
-668 -1148 -1163 0
-683 -758 -773 0
-683 -758 -908 0
-683 -758 -923 0
-683 -758 -1148 0
-683 -758 -1163 0
-683 -773 -908 0
-683 -773 -923 0
-683 -773 -1148 0
-683 -773 -1163 0
-683 -908 -923 0
-683 -908 -1148 0
-683 -908 -1163 0
-683 -923 -1148 0
-683 -923 -1163 0
-683 -1148 -1163 0
-758 -773 -908 0
-758 -773 -923 0
-758 -773 -1148 0
-758 -773 -1163 0
-758 -908 -923 0
-758 -908 -1148 0
-758 -908 -1163 0
-758 -923 -1148 0
-758 -923 -1163 0
-758 -1148 -1163 0
-773 -908 -923 0
-773 -908 -1148 0
-773 -908 -1163 0
-773 -923 -1148 0
-773 -923 -1163 0
-773 -1148 -1163 0
-908 -923 -1148 0
-908 -923 -1163 0
-908 -1148 -1163 0
-923 -1148 -1163 0
668 683 758 773 908 923 1148 0
668 683 758 773 908 923 1163 0
668 683 758 773 908 1148 1163 0
668 683 758 773 923 1148 1163 0
668 683 758 908 923 1148 1163 0
668 683 773 908 923 1148 1163 0
668 758 773 908 923 1148 1163 0
683 758 773 908 923 1148 1163 0
-14 -20 -38 0
-14 -20 -44 0
-14 -38 -44 0
-20 -38 -44 0
14 20 38 0
14 20 44 0
14 38 44 0
20 38 44 0
-17 -23 -41 0
-17 -23 -47 0
-17 -41 -47 0
-23 -41 -47 0
17 23 41 0
17 23 47 0
17 41 47 0
23 41 47 0
-398 -413 0
-398 -458 0
-398 -473 0
-413 -458 0
-413 -473 0
-458 -473 0
398 413 458 473 0
-74 -80 -86 0
-74 -80 -92 0
-74 -86 -92 0
-80 -86 -92 0
74 80 86 0
74 80 92 0
74 86 92 0
80 86 92 0
-78 -84 -90 0
-78 -84 -96 0
-78 -90 -96 0
-84 -90 -96 0
78 84 90 0
78 84 96 0
78 90 96 0
84 90 96 0
-549 -564 0
-549 -579 0
-549 -594 0
-564 -579 0
-564 -594 0
-579 -594 0
549 564 579 594 0
-26 -32 -170 -176 -254 0
-26 -32 -170 -176 -260 0
-26 -32 -170 -176 -326 0
-26 -32 -170 -176 -332 0
-26 -32 -170 -254 -260 0
-26 -32 -170 -254 -326 0
-26 -32 -170 -254 -332 0
-26 -32 -170 -260 -326 0
-26 -32 -170 -260 -332 0
-26 -32 -170 -326 -332 0
-26 -32 -176 -254 -260 0
-26 -32 -176 -254 -326 0
-26 -32 -176 -254 -332 0
-26 -32 -176 -260 -326 0
-26 -32 -176 -260 -332 0
-26 -32 -176 -326 -332 0
-26 -32 -254 -260 -326 0
-26 -32 -254 -260 -332 0
-26 -32 -254 -326 -332 0
-26 -32 -260 -326 -332 0
-26 -170 -176 -254 -260 0
-26 -170 -176 -254 -326 0
-26 -170 -176 -254 -332 0
-26 -170 -176 -260 -326 0
-26 -170 -176 -260 -332 0
-26 -170 -176 -326 -332 0
-26 -170 -254 -260 -326 0
-26 -170 -254 -260 -332 0
-26 -170 -254 -326 -332 0
-26 -170 -260 -326 -332 0
-26 -176 -254 -260 -326 0
-26 -176 -254 -260 -332 0
-26 -176 -254 -326 -332 0
-26 -176 -260 -326 -332 0
-26 -254 -260 -326 -332 0
-32 -170 -176 -254 -260 0
-32 -170 -176 -254 -326 0
-32 -170 -176 -254 -332 0
-32 -170 -176 -260 -326 0
-32 -170 -176 -260 -332 0
-32 -170 -176 -326 -332 0
-32 -170 -254 -260 -326 0
-32 -170 -254 -260 -332 0
-32 -170 -254 -326 -332 0
-32 -170 -260 -326 -332 0
-32 -176 -254 -260 -326 0
-32 -176 -254 -260 -332 0
-32 -176 -254 -326 -332 0
-32 -176 -260 -326 -332 0
-32 -254 -260 -326 -332 0
-170 -176 -254 -260 -326 0
-170 -176 -254 -260 -332 0
-170 -176 -254 -326 -332 0
-170 -176 -260 -326 -332 0
-170 -254 -260 -326 -332 0
-176 -254 -260 -326 -332 0
26 32 170 176 254 0
26 32 170 176 260 0
26 32 170 176 326 0
26 32 170 176 332 0
26 32 170 254 260 0
26 32 170 254 326 0
26 32 170 254 332 0
26 32 170 260 326 0
26 32 170 260 332 0
26 32 170 326 332 0
26 32 176 254 260 0
26 32 176 254 326 0
26 32 176 254 332 0
26 32 176 260 326 0
26 32 176 260 332 0
26 32 176 326 332 0
26 32 254 260 326 0
26 32 254 260 332 0
26 32 254 326 332 0
26 32 260 326 332 0
26 170 176 254 260 0
26 170 176 254 326 0
26 170 176 254 332 0
26 170 176 260 326 0
26 170 176 260 332 0
26 170 176 326 332 0
26 170 254 260 326 0
26 170 254 260 332 0
26 170 254 326 332 0
26 170 260 326 332 0
26 176 254 260 326 0
26 176 254 260 332 0
26 176 254 326 332 0
26 176 260 326 332 0
26 254 260 326 332 0
32 170 176 254 260 0
32 170 176 254 326 0
32 170 176 254 332 0
32 170 176 260 326 0
32 170 176 260 332 0
32 170 176 326 332 0
32 170 254 260 326 0
32 170 254 260 332 0
32 170 254 326 332 0
32 170 260 326 332 0
32 176 254 260 326 0
32 176 254 260 332 0
32 176 254 326 332 0
32 176 260 326 332 0
32 254 260 326 332 0
170 176 254 260 326 0
170 176 254 260 332 0
170 176 254 326 332 0
170 176 260 326 332 0
170 254 260 326 332 0
176 254 260 326 332 0
-30 -36 -174 -180 -258 0
-30 -36 -174 -180 -264 0
-30 -36 -174 -180 -330 0
-30 -36 -174 -180 -336 0
-30 -36 -174 -258 -264 0
-30 -36 -174 -258 -330 0
-30 -36 -174 -258 -336 0
-30 -36 -174 -264 -330 0
-30 -36 -174 -264 -336 0
-30 -36 -174 -330 -336 0
-30 -36 -180 -258 -264 0
-30 -36 -180 -258 -330 0
-30 -36 -180 -258 -336 0
-30 -36 -180 -264 -330 0
-30 -36 -180 -264 -336 0
-30 -36 -180 -330 -336 0
-30 -36 -258 -264 -330 0
-30 -36 -258 -264 -336 0
-30 -36 -258 -330 -336 0
-30 -36 -264 -330 -336 0
-30 -174 -180 -258 -264 0
-30 -174 -180 -258 -330 0
-30 -174 -180 -258 -336 0
-30 -174 -180 -264 -330 0
-30 -174 -180 -264 -336 0
-30 -174 -180 -330 -336 0
-30 -174 -258 -264 -330 0
-30 -174 -258 -264 -336 0
-30 -174 -258 -330 -336 0
-30 -174 -264 -330 -336 0
-30 -180 -258 -264 -330 0
-30 -180 -258 -264 -336 0
-30 -180 -258 -330 -336 0
-30 -180 -264 -330 -336 0
-30 -258 -264 -330 -336 0
-36 -174 -180 -258 -264 0
-36 -174 -180 -258 -330 0
-36 -174 -180 -258 -336 0
-36 -174 -180 -264 -330 0
-36 -174 -180 -264 -336 0
-36 -174 -180 -330 -336 0
-36 -174 -258 -264 -330 0
-36 -174 -258 -264 -336 0
-36 -174 -258 -330 -336 0
-36 -174 -264 -330 -336 0
-36 -180 -258 -264 -330 0
-36 -180 -258 -264 -336 0
-36 -180 -258 -330 -336 0
-36 -180 -264 -330 -336 0
-36 -258 -264 -330 -336 0
-174 -180 -258 -264 -330 0
-174 -180 -258 -264 -336 0
-174 -180 -258 -330 -336 0
-174 -180 -264 -330 -336 0
-174 -258 -264 -330 -336 0
-180 -258 -264 -330 -336 0
30 36 174 180 258 0
30 36 174 180 264 0
30 36 174 180 330 0
30 36 174 180 336 0
30 36 174 258 264 0
30 36 174 258 330 0
30 36 174 258 336 0
30 36 174 264 330 0
30 36 174 264 336 0
30 36 174 330 336 0
30 36 180 258 264 0
30 36 180 258 330 0
30 36 180 258 336 0
30 36 180 264 330 0
30 36 180 264 336 0
30 36 180 330 336 0
30 36 258 264 330 0
30 36 258 264 336 0
30 36 258 330 336 0
30 36 264 330 336 0
30 174 180 258 264 0
30 174 180 258 330 0
30 174 180 258 336 0
30 174 180 264 330 0
30 174 180 264 336 0
30 174 180 330 336 0
30 174 258 264 330 0
30 174 258 264 336 0
30 174 258 330 336 0
30 174 264 330 336 0
30 180 258 264 330 0
30 180 258 264 336 0
30 180 258 330 336 0
30 180 264 330 336 0
30 258 264 330 336 0
36 174 180 258 264 0
36 174 180 258 330 0
36 174 180 258 336 0
36 174 180 264 330 0
36 174 180 264 336 0
36 174 180 330 336 0
36 174 258 264 330 0
36 174 258 264 336 0
36 174 258 330 336 0
36 174 264 330 336 0
36 180 258 264 330 0
36 180 258 264 336 0
36 180 258 330 336 0
36 180 264 330 336 0
36 258 264 330 336 0
174 180 258 264 330 0
174 180 258 264 336 0
174 180 258 330 336 0
174 180 264 330 336 0
174 258 264 330 336 0
180 258 264 330 336 0
-429 -444 -789 0
-429 -444 -804 0
-429 -444 -999 0
-429 -444 -1014 0
-429 -444 -1179 0
-429 -444 -1194 0
-429 -789 -804 0
-429 -789 -999 0
-429 -789 -1014 0
-429 -789 -1179 0
-429 -789 -1194 0
-429 -804 -999 0
-429 -804 -1014 0
-429 -804 -1179 0
-429 -804 -1194 0
-429 -999 -1014 0
-429 -999 -1179 0
-429 -999 -1194 0
-429 -1014 -1179 0
-429 -1014 -1194 0
-429 -1179 -1194 0
-444 -789 -804 0
-444 -789 -999 0
-444 -789 -1014 0
-444 -789 -1179 0
-444 -789 -1194 0
-444 -804 -999 0
-444 -804 -1014 0
-444 -804 -1179 0
-444 -804 -1194 0
-444 -999 -1014 0
-444 -999 -1179 0
-444 -999 -1194 0
-444 -1014 -1179 0
-444 -1014 -1194 0
-444 -1179 -1194 0
-789 -804 -999 0
-789 -804 -1014 0
-789 -804 -1179 0
-789 -804 -1194 0
-789 -999 -1014 0
-789 -999 -1179 0
-789 -999 -1194 0
-789 -1014 -1179 0
-789 -1014 -1194 0
-789 -1179 -1194 0
-804 -999 -1014 0
-804 -999 -1179 0
-804 -999 -1194 0
-804 -1014 -1179 0
-804 -1014 -1194 0
-804 -1179 -1194 0
-999 -1014 -1179 0
-999 -1014 -1194 0
-999 -1179 -1194 0
-1014 -1179 -1194 0
429 444 789 804 999 1014 1179 0
429 444 789 804 999 1014 1194 0
429 444 789 804 999 1179 1194 0
429 444 789 804 1014 1179 1194 0
429 444 789 999 1014 1179 1194 0
429 444 804 999 1014 1179 1194 0
429 789 804 999 1014 1179 1194 0
444 789 804 999 1014 1179 1194 0
-50 -56 -194 -200 -278 0
-50 -56 -194 -200 -284 0
-50 -56 -194 -200 -350 0
-50 -56 -194 -200 -356 0
-50 -56 -194 -278 -284 0
-50 -56 -194 -278 -350 0
-50 -56 -194 -278 -356 0
-50 -56 -194 -284 -350 0
-50 -56 -194 -284 -356 0
-50 -56 -194 -350 -356 0
-50 -56 -200 -278 -284 0
-50 -56 -200 -278 -350 0
-50 -56 -200 -278 -356 0
-50 -56 -200 -284 -350 0
-50 -56 -200 -284 -356 0
-50 -56 -200 -350 -356 0
-50 -56 -278 -284 -350 0
-50 -56 -278 -284 -356 0
-50 -56 -278 -350 -356 0
-50 -56 -284 -350 -356 0
-50 -194 -200 -278 -284 0
-50 -194 -200 -278 -350 0
-50 -194 -200 -278 -356 0
-50 -194 -200 -284 -350 0
-50 -194 -200 -284 -356 0
-50 -194 -200 -350 -356 0
-50 -194 -278 -284 -350 0
-50 -194 -278 -284 -356 0
-50 -194 -278 -350 -356 0
-50 -194 -284 -350 -356 0
-50 -200 -278 -284 -350 0
-50 -200 -278 -284 -356 0
-50 -200 -278 -350 -356 0
-50 -200 -284 -350 -356 0
-50 -278 -284 -350 -356 0
-56 -194 -200 -278 -284 0
-56 -194 -200 -278 -350 0
-56 -194 -200 -278 -356 0
-56 -194 -200 -284 -350 0
-56 -194 -200 -284 -356 0
-56 -194 -200 -350 -356 0
-56 -194 -278 -284 -350 0
-56 -194 -278 -284 -356 0
-56 -194 -278 -350 -356 0
-56 -194 -284 -350 -356 0
-56 -200 -278 -284 -350 0
-56 -200 -278 -284 -356 0
-56 -200 -278 -350 -356 0
-56 -200 -284 -350 -356 0
-56 -278 -284 -350 -356 0
-194 -200 -278 -284 -350 0
-194 -200 -278 -284 -356 0
-194 -200 -278 -350 -356 0
-194 -200 -284 -350 -356 0
-194 -278 -284 -350 -356 0
-200 -278 -284 -350 -356 0
50 56 194 200 278 0
50 56 194 200 284 0
50 56 194 200 350 0
50 56 194 200 356 0
50 56 194 278 284 0
50 56 194 278 350 0
50 56 194 278 356 0
50 56 194 284 350 0
50 56 194 284 356 0
50 56 194 350 356 0
50 56 200 278 284 0
50 56 200 278 350 0
50 56 200 278 356 0
50 56 200 284 350 0
50 56 200 284 356 0
50 56 200 350 356 0
50 56 278 284 350 0
50 56 278 284 356 0
50 56 278 350 356 0
50 56 284 350 356 0
50 194 200 278 284 0
50 194 200 278 350 0
50 194 200 278 356 0
50 194 200 284 350 0
50 194 200 284 356 0
50 194 200 350 356 0
50 194 278 284 350 0
50 194 278 284 356 0
50 194 278 350 356 0
50 194 284 350 356 0
50 200 278 284 350 0
50 200 278 284 356 0
50 200 278 350 356 0
50 200 284 350 356 0
50 278 284 350 356 0
56 194 200 278 284 0
56 194 200 278 350 0
56 194 200 278 356 0
56 194 200 284 350 0
56 194 200 284 356 0
56 194 200 350 356 0
56 194 278 284 350 0
56 194 278 284 356 0
56 194 278 350 356 0
56 194 284 350 356 0
56 200 278 284 350 0
56 200 278 284 356 0
56 200 278 350 356 0
56 200 284 350 356 0
56 278 284 350 356 0
194 200 278 284 350 0
194 200 278 284 356 0
194 200 278 350 356 0
194 200 284 350 356 0
194 278 284 350 356 0
200 278 284 350 356 0
-54 -60 -198 -204 -282 0
-54 -60 -198 -204 -288 0
-54 -60 -198 -204 -354 0
-54 -60 -198 -204 -360 0
-54 -60 -198 -282 -288 0
-54 -60 -198 -282 -354 0
-54 -60 -198 -282 -360 0
-54 -60 -198 -288 -354 0
-54 -60 -198 -288 -360 0
-54 -60 -198 -354 -360 0
-54 -60 -204 -282 -288 0
-54 -60 -204 -282 -354 0
-54 -60 -204 -282 -360 0
-54 -60 -204 -288 -354 0
-54 -60 -204 -288 -360 0
-54 -60 -204 -354 -360 0
-54 -60 -282 -288 -354 0
-54 -60 -282 -288 -360 0
-54 -60 -282 -354 -360 0
-54 -60 -288 -354 -360 0
-54 -198 -204 -282 -288 0
-54 -198 -204 -282 -354 0
-54 -198 -204 -282 -360 0
-54 -198 -204 -288 -354 0
-54 -198 -204 -288 -360 0
-54 -198 -204 -354 -360 0
-54 -198 -282 -288 -354 0
-54 -198 -282 -288 -360 0
-54 -198 -282 -354 -360 0
-54 -198 -288 -354 -360 0
-54 -204 -282 -288 -354 0
-54 -204 -282 -288 -360 0
-54 -204 -282 -354 -360 0
-54 -204 -288 -354 -360 0
-54 -282 -288 -354 -360 0
-60 -198 -204 -282 -288 0
-60 -198 -204 -282 -354 0
-60 -198 -204 -282 -360 0
-60 -198 -204 -288 -354 0
-60 -198 -204 -288 -360 0
-60 -198 -204 -354 -360 0
-60 -198 -282 -288 -354 0
-60 -198 -282 -288 -360 0
-60 -198 -282 -354 -360 0
-60 -198 -288 -354 -360 0
-60 -204 -282 -288 -354 0
-60 -204 -282 -288 -360 0
-60 -204 -282 -354 -360 0
-60 -204 -288 -354 -360 0
-60 -282 -288 -354 -360 0
-198 -204 -282 -288 -354 0
-198 -204 -282 -288 -360 0
-198 -204 -282 -354 -360 0
-198 -204 -288 -354 -360 0
-198 -282 -288 -354 -360 0
-204 -282 -288 -354 -360 0
54 60 198 204 282 0
54 60 198 204 288 0
54 60 198 204 354 0
54 60 198 204 360 0
54 60 198 282 288 0
54 60 198 282 354 0
54 60 198 282 360 0
54 60 198 288 354 0
54 60 198 288 360 0
54 60 198 354 360 0
54 60 204 282 288 0
54 60 204 282 354 0
54 60 204 282 360 0
54 60 204 288 354 0
54 60 204 288 360 0
54 60 204 354 360 0
54 60 282 288 354 0
54 60 282 288 360 0
54 60 282 354 360 0
54 60 288 354 360 0
54 198 204 282 288 0
54 198 204 282 354 0
54 198 204 282 360 0
54 198 204 288 354 0
54 198 204 288 360 0
54 198 204 354 360 0
54 198 282 288 354 0
54 198 282 288 360 0
54 198 282 354 360 0
54 198 288 354 360 0
54 204 282 288 354 0
54 204 282 288 360 0
54 204 282 354 360 0
54 204 288 354 360 0
54 282 288 354 360 0
60 198 204 282 288 0
60 198 204 282 354 0
60 198 204 282 360 0
60 198 204 288 354 0
60 198 204 288 360 0
60 198 204 354 360 0
60 198 282 288 354 0
60 198 282 288 360 0
60 198 282 354 360 0
60 198 288 354 360 0
60 204 282 288 354 0
60 204 282 288 360 0
60 204 282 354 360 0
60 204 288 354 360 0
60 282 288 354 360 0
198 204 282 288 354 0
198 204 282 288 360 0
198 204 282 354 360 0
198 204 288 354 360 0
198 282 288 354 360 0
204 282 288 354 360 0
-489 -504 -849 0
-489 -504 -864 0
-489 -504 -1059 0
-489 -504 -1074 0
-489 -504 -1239 0
-489 -504 -1254 0
-489 -849 -864 0
-489 -849 -1059 0
-489 -849 -1074 0
-489 -849 -1239 0
-489 -849 -1254 0
-489 -864 -1059 0
-489 -864 -1074 0
-489 -864 -1239 0
-489 -864 -1254 0
-489 -1059 -1074 0
-489 -1059 -1239 0
-489 -1059 -1254 0
-489 -1074 -1239 0
-489 -1074 -1254 0
-489 -1239 -1254 0
-504 -849 -864 0
-504 -849 -1059 0
-504 -849 -1074 0
-504 -849 -1239 0
-504 -849 -1254 0
-504 -864 -1059 0
-504 -864 -1074 0
-504 -864 -1239 0
-504 -864 -1254 0
-504 -1059 -1074 0
-504 -1059 -1239 0
-504 -1059 -1254 0
-504 -1074 -1239 0
-504 -1074 -1254 0
-504 -1239 -1254 0
-849 -864 -1059 0
-849 -864 -1074 0
-849 -864 -1239 0
-849 -864 -1254 0
-849 -1059 -1074 0
-849 -1059 -1239 0
-849 -1059 -1254 0
-849 -1074 -1239 0
-849 -1074 -1254 0
-849 -1239 -1254 0
-864 -1059 -1074 0
-864 -1059 -1239 0
-864 -1059 -1254 0
-864 -1074 -1239 0
-864 -1074 -1254 0
-864 -1239 -1254 0
-1059 -1074 -1239 0
-1059 -1074 -1254 0
-1059 -1239 -1254 0
-1074 -1239 -1254 0
489 504 849 864 1059 1074 1239 0
489 504 849 864 1059 1074 1254 0
489 504 849 864 1059 1239 1254 0
489 504 849 864 1074 1239 1254 0
489 504 849 1059 1074 1239 1254 0
489 504 864 1059 1074 1239 1254 0
489 849 864 1059 1074 1239 1254 0
504 849 864 1059 1074 1239 1254 0
-2 -8 -146 -152 -230 0
-2 -8 -146 -152 -236 0
-2 -8 -146 -152 -302 0
-2 -8 -146 -152 -308 0
-2 -8 -146 -230 -236 0
-2 -8 -146 -230 -302 0
-2 -8 -146 -230 -308 0
-2 -8 -146 -236 -302 0
-2 -8 -146 -236 -308 0
-2 -8 -146 -302 -308 0
-2 -8 -152 -230 -236 0
-2 -8 -152 -230 -302 0
-2 -8 -152 -230 -308 0
-2 -8 -152 -236 -302 0
-2 -8 -152 -236 -308 0
-2 -8 -152 -302 -308 0
-2 -8 -230 -236 -302 0
-2 -8 -230 -236 -308 0
-2 -8 -230 -302 -308 0
-2 -8 -236 -302 -308 0
-2 -146 -152 -230 -236 0
-2 -146 -152 -230 -302 0
-2 -146 -152 -230 -308 0
-2 -146 -152 -236 -302 0
-2 -146 -152 -236 -308 0
-2 -146 -152 -302 -308 0
-2 -146 -230 -236 -302 0
-2 -146 -230 -236 -308 0
-2 -146 -230 -302 -308 0
-2 -146 -236 -302 -308 0
-2 -152 -230 -236 -302 0
-2 -152 -230 -236 -308 0
-2 -152 -230 -302 -308 0
-2 -152 -236 -302 -308 0
-2 -230 -236 -302 -308 0
-8 -146 -152 -230 -236 0
-8 -146 -152 -230 -302 0
-8 -146 -152 -230 -308 0
-8 -146 -152 -236 -302 0
-8 -146 -152 -236 -308 0
-8 -146 -152 -302 -308 0
-8 -146 -230 -236 -302 0
-8 -146 -230 -236 -308 0
-8 -146 -230 -302 -308 0
-8 -146 -236 -302 -308 0
-8 -152 -230 -236 -302 0
-8 -152 -230 -236 -308 0
-8 -152 -230 -302 -308 0
-8 -152 -236 -302 -308 0
-8 -230 -236 -302 -308 0
-146 -152 -230 -236 -302 0
-146 -152 -230 -236 -308 0
-146 -152 -230 -302 -308 0
-146 -152 -236 -302 -308 0
-146 -230 -236 -302 -308 0
-152 -230 -236 -302 -308 0
2 8 146 152 230 0
2 8 146 152 236 0
2 8 146 152 302 0
2 8 146 152 308 0
2 8 146 230 236 0
2 8 146 230 302 0
2 8 146 230 308 0
2 8 146 236 302 0
2 8 146 236 308 0
2 8 146 302 308 0
2 8 152 230 236 0
2 8 152 230 302 0
2 8 152 230 308 0
2 8 152 236 302 0
2 8 152 236 308 0
2 8 152 302 308 0
2 8 230 236 302 0
2 8 230 236 308 0
2 8 230 302 308 0
2 8 236 302 308 0
2 146 152 230 236 0
2 146 152 230 302 0
2 146 152 230 308 0
2 146 152 236 302 0
2 146 152 236 308 0
2 146 152 302 308 0
2 146 230 236 302 0
2 146 230 236 308 0
2 146 230 302 308 0
2 146 236 302 308 0
2 152 230 236 302 0
2 152 230 236 308 0
2 152 230 302 308 0
2 152 236 302 308 0
2 230 236 302 308 0
8 146 152 230 236 0
8 146 152 230 302 0
8 146 152 230 308 0
8 146 152 236 302 0
8 146 152 236 308 0
8 146 152 302 308 0
8 146 230 236 302 0
8 146 230 236 308 0
8 146 230 302 308 0
8 146 236 302 308 0
8 152 230 236 302 0
8 152 230 236 308 0
8 152 230 302 308 0
8 152 236 302 308 0
8 230 236 302 308 0
146 152 230 236 302 0
146 152 230 236 308 0
146 152 230 302 308 0
146 152 236 302 308 0
146 230 236 302 308 0
152 230 236 302 308 0
-6 -12 -150 -156 -234 0
-6 -12 -150 -156 -240 0
-6 -12 -150 -156 -306 0
-6 -12 -150 -156 -312 0
-6 -12 -150 -234 -240 0
-6 -12 -150 -234 -306 0
-6 -12 -150 -234 -312 0
-6 -12 -150 -240 -306 0
-6 -12 -150 -240 -312 0
-6 -12 -150 -306 -312 0
-6 -12 -156 -234 -240 0
-6 -12 -156 -234 -306 0
-6 -12 -156 -234 -312 0
-6 -12 -156 -240 -306 0
-6 -12 -156 -240 -312 0
-6 -12 -156 -306 -312 0
-6 -12 -234 -240 -306 0
-6 -12 -234 -240 -312 0
-6 -12 -234 -306 -312 0
-6 -12 -240 -306 -312 0
-6 -150 -156 -234 -240 0
-6 -150 -156 -234 -306 0
-6 -150 -156 -234 -312 0
-6 -150 -156 -240 -306 0
-6 -150 -156 -240 -312 0
-6 -150 -156 -306 -312 0
-6 -150 -234 -240 -306 0
-6 -150 -234 -240 -312 0
-6 -150 -234 -306 -312 0
-6 -150 -240 -306 -312 0
-6 -156 -234 -240 -306 0
-6 -156 -234 -240 -312 0
-6 -156 -234 -306 -312 0
-6 -156 -240 -306 -312 0
-6 -234 -240 -306 -312 0
-12 -150 -156 -234 -240 0
-12 -150 -156 -234 -306 0
-12 -150 -156 -234 -312 0
-12 -150 -156 -240 -306 0
-12 -150 -156 -240 -312 0
-12 -150 -156 -306 -312 0
-12 -150 -234 -240 -306 0
-12 -150 -234 -240 -312 0
-12 -150 -234 -306 -312 0
-12 -150 -240 -306 -312 0
-12 -156 -234 -240 -306 0
-12 -156 -234 -240 -312 0
-12 -156 -234 -306 -312 0
-12 -156 -240 -306 -312 0
-12 -234 -240 -306 -312 0
-150 -156 -234 -240 -306 0
-150 -156 -234 -240 -312 0
-150 -156 -234 -306 -312 0
-150 -156 -240 -306 -312 0
-150 -234 -240 -306 -312 0
-156 -234 -240 -306 -312 0
6 12 150 156 234 0
6 12 150 156 240 0
6 12 150 156 306 0
6 12 150 156 312 0
6 12 150 234 240 0
6 12 150 234 306 0
6 12 150 234 312 0
6 12 150 240 306 0
6 12 150 240 312 0
6 12 150 306 312 0
6 12 156 234 240 0
6 12 156 234 306 0
6 12 156 234 312 0
6 12 156 240 306 0
6 12 156 240 312 0
6 12 156 306 312 0
6 12 234 240 306 0
6 12 234 240 312 0
6 12 234 306 312 0
6 12 240 306 312 0
6 150 156 234 240 0
6 150 156 234 306 0
6 150 156 234 312 0
6 150 156 240 306 0
6 150 156 240 312 0
6 150 156 306 312 0
6 150 234 240 306 0
6 150 234 240 312 0
6 150 234 306 312 0
6 150 240 306 312 0
6 156 234 240 306 0
6 156 234 240 312 0
6 156 234 306 312 0
6 156 240 306 312 0
6 234 240 306 312 0
12 150 156 234 240 0
12 150 156 234 306 0
12 150 156 234 312 0
12 150 156 240 306 0
12 150 156 240 312 0
12 150 156 306 312 0
12 150 234 240 306 0
12 150 234 240 312 0
12 150 234 306 312 0
12 150 240 306 312 0
12 156 234 240 306 0
12 156 234 240 312 0
12 156 234 306 312 0
12 156 240 306 312 0
12 234 240 306 312 0
150 156 234 240 306 0
150 156 234 240 312 0
150 156 234 306 312 0
150 156 240 306 312 0
150 234 240 306 312 0
156 234 240 306 312 0
-369 -384 -729 0
-369 -384 -744 0
-369 -384 -939 0
-369 -384 -954 0
-369 -384 -1119 0
-369 -384 -1134 0
-369 -729 -744 0
-369 -729 -939 0
-369 -729 -954 0
-369 -729 -1119 0
-369 -729 -1134 0
-369 -744 -939 0
-369 -744 -954 0
-369 -744 -1119 0
-369 -744 -1134 0
-369 -939 -954 0
-369 -939 -1119 0
-369 -939 -1134 0
-369 -954 -1119 0
-369 -954 -1134 0
-369 -1119 -1134 0
-384 -729 -744 0
-384 -729 -939 0
-384 -729 -954 0
-384 -729 -1119 0
-384 -729 -1134 0
-384 -744 -939 0
-384 -744 -954 0
-384 -744 -1119 0
-384 -744 -1134 0
-384 -939 -954 0
-384 -939 -1119 0
-384 -939 -1134 0
-384 -954 -1119 0
-384 -954 -1134 0
-384 -1119 -1134 0
-729 -744 -939 0
-729 -744 -954 0
-729 -744 -1119 0
-729 -744 -1134 0
-729 -939 -954 0
-729 -939 -1119 0
-729 -939 -1134 0
-729 -954 -1119 0
-729 -954 -1134 0
-729 -1119 -1134 0
-744 -939 -954 0
-744 -939 -1119 0
-744 -939 -1134 0
-744 -954 -1119 0
-744 -954 -1134 0
-744 -1119 -1134 0
-939 -954 -1119 0
-939 -954 -1134 0
-939 -1119 -1134 0
-954 -1119 -1134 0
369 384 729 744 939 954 1119 0
369 384 729 744 939 954 1134 0
369 384 729 744 939 1119 1134 0
369 384 729 744 954 1119 1134 0
369 384 729 939 954 1119 1134 0
369 384 744 939 954 1119 1134 0
369 729 744 939 954 1119 1134 0
384 729 744 939 954 1119 1134 0
-98 -104 -110 0
-98 -104 -116 0
-98 -110 -116 0
-104 -110 -116 0
98 104 110 0
98 104 116 0
98 110 116 0
104 110 116 0
-102 -108 -114 0
-102 -108 -120 0
-102 -114 -120 0
-108 -114 -120 0
102 108 114 0
102 108 120 0
102 114 120 0
108 114 120 0
-609 -624 0
-609 -639 0
-609 -654 0
-624 -639 0
-624 -654 0
-639 -654 0
609 624 639 654 0
-62 -68 -206 -212 -266 0
-62 -68 -206 -212 -272 0
-62 -68 -206 -212 -338 0
-62 -68 -206 -212 -344 0
-62 -68 -206 -266 -272 0
-62 -68 -206 -266 -338 0
-62 -68 -206 -266 -344 0
-62 -68 -206 -272 -338 0
-62 -68 -206 -272 -344 0
-62 -68 -206 -338 -344 0
-62 -68 -212 -266 -272 0
-62 -68 -212 -266 -338 0
-62 -68 -212 -266 -344 0
-62 -68 -212 -272 -338 0
-62 -68 -212 -272 -344 0
-62 -68 -212 -338 -344 0
-62 -68 -266 -272 -338 0
-62 -68 -266 -272 -344 0
-62 -68 -266 -338 -344 0
-62 -68 -272 -338 -344 0
-62 -206 -212 -266 -272 0
-62 -206 -212 -266 -338 0
-62 -206 -212 -266 -344 0
-62 -206 -212 -272 -338 0
-62 -206 -212 -272 -344 0
-62 -206 -212 -338 -344 0
-62 -206 -266 -272 -338 0
-62 -206 -266 -272 -344 0
-62 -206 -266 -338 -344 0
-62 -206 -272 -338 -344 0
-62 -212 -266 -272 -338 0
-62 -212 -266 -272 -344 0
-62 -212 -266 -338 -344 0
-62 -212 -272 -338 -344 0
-62 -266 -272 -338 -344 0
-68 -206 -212 -266 -272 0
-68 -206 -212 -266 -338 0
-68 -206 -212 -266 -344 0
-68 -206 -212 -272 -338 0
-68 -206 -212 -272 -344 0
-68 -206 -212 -338 -344 0
-68 -206 -266 -272 -338 0
-68 -206 -266 -272 -344 0
-68 -206 -266 -338 -344 0
-68 -206 -272 -338 -344 0
-68 -212 -266 -272 -338 0
-68 -212 -266 -272 -344 0
-68 -212 -266 -338 -344 0
-68 -212 -272 -338 -344 0
-68 -266 -272 -338 -344 0
-206 -212 -266 -272 -338 0
-206 -212 -266 -272 -344 0
-206 -212 -266 -338 -344 0
-206 -212 -272 -338 -344 0
-206 -266 -272 -338 -344 0
-212 -266 -272 -338 -344 0
62 68 206 212 266 0
62 68 206 212 272 0
62 68 206 212 338 0
62 68 206 212 344 0
62 68 206 266 272 0
62 68 206 266 338 0
62 68 206 266 344 0
62 68 206 272 338 0
62 68 206 272 344 0
62 68 206 338 344 0
62 68 212 266 272 0
62 68 212 266 338 0
62 68 212 266 344 0
62 68 212 272 338 0
62 68 212 272 344 0
62 68 212 338 344 0
62 68 266 272 338 0
62 68 266 272 344 0
62 68 266 338 344 0
62 68 272 338 344 0
62 206 212 266 272 0
62 206 212 266 338 0
62 206 212 266 344 0
62 206 212 272 338 0
62 206 212 272 344 0
62 206 212 338 344 0
62 206 266 272 338 0
62 206 266 272 344 0
62 206 266 338 344 0
62 206 272 338 344 0
62 212 266 272 338 0
62 212 266 272 344 0
62 212 266 338 344 0
62 212 272 338 344 0
62 266 272 338 344 0
68 206 212 266 272 0
68 206 212 266 338 0
68 206 212 266 344 0
68 206 212 272 338 0
68 206 212 272 344 0
68 206 212 338 344 0
68 206 266 272 338 0
68 206 266 272 344 0
68 206 266 338 344 0
68 206 272 338 344 0
68 212 266 272 338 0
68 212 266 272 344 0
68 212 266 338 344 0
68 212 272 338 344 0
68 266 272 338 344 0
206 212 266 272 338 0
206 212 266 272 344 0
206 212 266 338 344 0
206 212 272 338 344 0
206 266 272 338 344 0
212 266 272 338 344 0
-66 -72 -210 -216 -270 0
-66 -72 -210 -216 -276 0
-66 -72 -210 -216 -342 0
-66 -72 -210 -216 -348 0
-66 -72 -210 -270 -276 0
-66 -72 -210 -270 -342 0
-66 -72 -210 -270 -348 0
-66 -72 -210 -276 -342 0
-66 -72 -210 -276 -348 0
-66 -72 -210 -342 -348 0
-66 -72 -216 -270 -276 0
-66 -72 -216 -270 -342 0
-66 -72 -216 -270 -348 0
-66 -72 -216 -276 -342 0
-66 -72 -216 -276 -348 0
-66 -72 -216 -342 -348 0
-66 -72 -270 -276 -342 0
-66 -72 -270 -276 -348 0
-66 -72 -270 -342 -348 0
-66 -72 -276 -342 -348 0
-66 -210 -216 -270 -276 0
-66 -210 -216 -270 -342 0
-66 -210 -216 -270 -348 0
-66 -210 -216 -276 -342 0
-66 -210 -216 -276 -348 0
-66 -210 -216 -342 -348 0
-66 -210 -270 -276 -342 0
-66 -210 -270 -276 -348 0
-66 -210 -270 -342 -348 0
-66 -210 -276 -342 -348 0
-66 -216 -270 -276 -342 0
-66 -216 -270 -276 -348 0
-66 -216 -270 -342 -348 0
-66 -216 -276 -342 -348 0
-66 -270 -276 -342 -348 0
-72 -210 -216 -270 -276 0
-72 -210 -216 -270 -342 0
-72 -210 -216 -270 -348 0
-72 -210 -216 -276 -342 0
-72 -210 -216 -276 -348 0
-72 -210 -216 -342 -348 0
-72 -210 -270 -276 -342 0
-72 -210 -270 -276 -348 0
-72 -210 -270 -342 -348 0
-72 -210 -276 -342 -348 0
-72 -216 -270 -276 -342 0
-72 -216 -270 -276 -348 0
-72 -216 -270 -342 -348 0
-72 -216 -276 -342 -348 0
-72 -270 -276 -342 -348 0
-210 -216 -270 -276 -342 0
-210 -216 -270 -276 -348 0
-210 -216 -270 -342 -348 0
-210 -216 -276 -342 -348 0
-210 -270 -276 -342 -348 0
-216 -270 -276 -342 -348 0
66 72 210 216 270 0
66 72 210 216 276 0
66 72 210 216 342 0
66 72 210 216 348 0
66 72 210 270 276 0
66 72 210 270 342 0
66 72 210 270 348 0
66 72 210 276 342 0
66 72 210 276 348 0
66 72 210 342 348 0
66 72 216 270 276 0
66 72 216 270 342 0
66 72 216 270 348 0
66 72 216 276 342 0
66 72 216 276 348 0
66 72 216 342 348 0
66 72 270 276 342 0
66 72 270 276 348 0
66 72 270 342 348 0
66 72 276 342 348 0
66 210 216 270 276 0
66 210 216 270 342 0
66 210 216 270 348 0
66 210 216 276 342 0
66 210 216 276 348 0
66 210 216 342 348 0
66 210 270 276 342 0
66 210 270 276 348 0
66 210 270 342 348 0
66 210 276 342 348 0
66 216 270 276 342 0
66 216 270 276 348 0
66 216 270 342 348 0
66 216 276 342 348 0
66 270 276 342 348 0
72 210 216 270 276 0
72 210 216 270 342 0
72 210 216 270 348 0
72 210 216 276 342 0
72 210 216 276 348 0
72 210 216 342 348 0
72 210 270 276 342 0
72 210 270 276 348 0
72 210 270 342 348 0
72 210 276 342 348 0
72 216 270 276 342 0
72 216 270 276 348 0
72 216 270 342 348 0
72 216 276 342 348 0
72 270 276 342 348 0
210 216 270 276 342 0
210 216 270 276 348 0
210 216 270 342 348 0
210 216 276 342 348 0
210 270 276 342 348 0
216 270 276 342 348 0
-519 -534 -879 0
-519 -534 -894 0
-519 -534 -1029 0
-519 -534 -1044 0
-519 -534 -1209 0
-519 -534 -1224 0
-519 -879 -894 0
-519 -879 -1029 0
-519 -879 -1044 0
-519 -879 -1209 0
-519 -879 -1224 0
-519 -894 -1029 0
-519 -894 -1044 0
-519 -894 -1209 0
-519 -894 -1224 0
-519 -1029 -1044 0
-519 -1029 -1209 0
-519 -1029 -1224 0
-519 -1044 -1209 0
-519 -1044 -1224 0
-519 -1209 -1224 0
-534 -879 -894 0
-534 -879 -1029 0
-534 -879 -1044 0
-534 -879 -1209 0
-534 -879 -1224 0
-534 -894 -1029 0
-534 -894 -1044 0
-534 -894 -1209 0
-534 -894 -1224 0
-534 -1029 -1044 0
-534 -1029 -1209 0
-534 -1029 -1224 0
-534 -1044 -1209 0
-534 -1044 -1224 0
-534 -1209 -1224 0
-879 -894 -1029 0
-879 -894 -1044 0
-879 -894 -1209 0
-879 -894 -1224 0
-879 -1029 -1044 0
-879 -1029 -1209 0
-879 -1029 -1224 0
-879 -1044 -1209 0
-879 -1044 -1224 0
-879 -1209 -1224 0
-894 -1029 -1044 0
-894 -1029 -1209 0
-894 -1029 -1224 0
-894 -1044 -1209 0
-894 -1044 -1224 0
-894 -1209 -1224 0
-1029 -1044 -1209 0
-1029 -1044 -1224 0
-1029 -1209 -1224 0
-1044 -1209 -1224 0
519 534 879 894 1029 1044 1209 0
519 534 879 894 1029 1044 1224 0
519 534 879 894 1029 1209 1224 0
519 534 879 894 1044 1209 1224 0
519 534 879 1029 1044 1209 1224 0
519 534 894 1029 1044 1209 1224 0
519 879 894 1029 1044 1209 1224 0
534 879 894 1029 1044 1209 1224 0
-14 -20 -158 -164 -218 0
-14 -20 -158 -164 -224 0
-14 -20 -158 -164 -290 0
-14 -20 -158 -164 -296 0
-14 -20 -158 -218 -224 0
-14 -20 -158 -218 -290 0
-14 -20 -158 -218 -296 0
-14 -20 -158 -224 -290 0
-14 -20 -158 -224 -296 0
-14 -20 -158 -290 -296 0
-14 -20 -164 -218 -224 0
-14 -20 -164 -218 -290 0
-14 -20 -164 -218 -296 0
-14 -20 -164 -224 -290 0
-14 -20 -164 -224 -296 0
-14 -20 -164 -290 -296 0
-14 -20 -218 -224 -290 0
-14 -20 -218 -224 -296 0
-14 -20 -218 -290 -296 0
-14 -20 -224 -290 -296 0
-14 -158 -164 -218 -224 0
-14 -158 -164 -218 -290 0
-14 -158 -164 -218 -296 0
-14 -158 -164 -224 -290 0
-14 -158 -164 -224 -296 0
-14 -158 -164 -290 -296 0
-14 -158 -218 -224 -290 0
-14 -158 -218 -224 -296 0
-14 -158 -218 -290 -296 0
-14 -158 -224 -290 -296 0
-14 -164 -218 -224 -290 0
-14 -164 -218 -224 -296 0
-14 -164 -218 -290 -296 0
-14 -164 -224 -290 -296 0
-14 -218 -224 -290 -296 0
-20 -158 -164 -218 -224 0
-20 -158 -164 -218 -290 0
-20 -158 -164 -218 -296 0
-20 -158 -164 -224 -290 0
-20 -158 -164 -224 -296 0
-20 -158 -164 -290 -296 0
-20 -158 -218 -224 -290 0
-20 -158 -218 -224 -296 0
-20 -158 -218 -290 -296 0
-20 -158 -224 -290 -296 0
-20 -164 -218 -224 -290 0
-20 -164 -218 -224 -296 0
-20 -164 -218 -290 -296 0
-20 -164 -224 -290 -296 0
-20 -218 -224 -290 -296 0
-158 -164 -218 -224 -290 0
-158 -164 -218 -224 -296 0
-158 -164 -218 -290 -296 0
-158 -164 -224 -290 -296 0
-158 -218 -224 -290 -296 0
-164 -218 -224 -290 -296 0
14 20 158 164 218 0
14 20 158 164 224 0
14 20 158 164 290 0
14 20 158 164 296 0
14 20 158 218 224 0
14 20 158 218 290 0
14 20 158 218 296 0
14 20 158 224 290 0
14 20 158 224 296 0
14 20 158 290 296 0
14 20 164 218 224 0
14 20 164 218 290 0
14 20 164 218 296 0
14 20 164 224 290 0
14 20 164 224 296 0
14 20 164 290 296 0
14 20 218 224 290 0
14 20 218 224 296 0
14 20 218 290 296 0
14 20 224 290 296 0
14 158 164 218 224 0
14 158 164 218 290 0
14 158 164 218 296 0
14 158 164 224 290 0
14 158 164 224 296 0
14 158 164 290 296 0
14 158 218 224 290 0
14 158 218 224 296 0
14 158 218 290 296 0
14 158 224 290 296 0
14 164 218 224 290 0
14 164 218 224 296 0
14 164 218 290 296 0
14 164 224 290 296 0
14 218 224 290 296 0
20 158 164 218 224 0
20 158 164 218 290 0
20 158 164 218 296 0
20 158 164 224 290 0
20 158 164 224 296 0
20 158 164 290 296 0
20 158 218 224 290 0
20 158 218 224 296 0
20 158 218 290 296 0
20 158 224 290 296 0
20 164 218 224 290 0
20 164 218 224 296 0
20 164 218 290 296 0
20 164 224 290 296 0
20 218 224 290 296 0
158 164 218 224 290 0
158 164 218 224 296 0
158 164 218 290 296 0
158 164 224 290 296 0
158 218 224 290 296 0
164 218 224 290 296 0
-18 -24 -162 -168 -222 0
-18 -24 -162 -168 -228 0
-18 -24 -162 -168 -294 0
-18 -24 -162 -168 -300 0
-18 -24 -162 -222 -228 0
-18 -24 -162 -222 -294 0
-18 -24 -162 -222 -300 0
-18 -24 -162 -228 -294 0
-18 -24 -162 -228 -300 0
-18 -24 -162 -294 -300 0
-18 -24 -168 -222 -228 0
-18 -24 -168 -222 -294 0
-18 -24 -168 -222 -300 0
-18 -24 -168 -228 -294 0
-18 -24 -168 -228 -300 0
-18 -24 -168 -294 -300 0
-18 -24 -222 -228 -294 0
-18 -24 -222 -228 -300 0
-18 -24 -222 -294 -300 0
-18 -24 -228 -294 -300 0
-18 -162 -168 -222 -228 0
-18 -162 -168 -222 -294 0
-18 -162 -168 -222 -300 0
-18 -162 -168 -228 -294 0
-18 -162 -168 -228 -300 0
-18 -162 -168 -294 -300 0
-18 -162 -222 -228 -294 0
-18 -162 -222 -228 -300 0
-18 -162 -222 -294 -300 0
-18 -162 -228 -294 -300 0
-18 -168 -222 -228 -294 0
-18 -168 -222 -228 -300 0
-18 -168 -222 -294 -300 0
-18 -168 -228 -294 -300 0
-18 -222 -228 -294 -300 0
-24 -162 -168 -222 -228 0
-24 -162 -168 -222 -294 0
-24 -162 -168 -222 -300 0
-24 -162 -168 -228 -294 0
-24 -162 -168 -228 -300 0
-24 -162 -168 -294 -300 0
-24 -162 -222 -228 -294 0
-24 -162 -222 -228 -300 0
-24 -162 -222 -294 -300 0
-24 -162 -228 -294 -300 0
-24 -168 -222 -228 -294 0
-24 -168 -222 -228 -300 0
-24 -168 -222 -294 -300 0
-24 -168 -228 -294 -300 0
-24 -222 -228 -294 -300 0
-162 -168 -222 -228 -294 0
-162 -168 -222 -228 -300 0
-162 -168 -222 -294 -300 0
-162 -168 -228 -294 -300 0
-162 -222 -228 -294 -300 0
-168 -222 -228 -294 -300 0
18 24 162 168 222 0
18 24 162 168 228 0
18 24 162 168 294 0
18 24 162 168 300 0
18 24 162 222 228 0
18 24 162 222 294 0
18 24 162 222 300 0
18 24 162 228 294 0
18 24 162 228 300 0
18 24 162 294 300 0
18 24 168 222 228 0
18 24 168 222 294 0
18 24 168 222 300 0
18 24 168 228 294 0
18 24 168 228 300 0
18 24 168 294 300 0
18 24 222 228 294 0
18 24 222 228 300 0
18 24 222 294 300 0
18 24 228 294 300 0
18 162 168 222 228 0
18 162 168 222 294 0
18 162 168 222 300 0
18 162 168 228 294 0
18 162 168 228 300 0
18 162 168 294 300 0
18 162 222 228 294 0
18 162 222 228 300 0
18 162 222 294 300 0
18 162 228 294 300 0
18 168 222 228 294 0
18 168 222 228 300 0
18 168 222 294 300 0
18 168 228 294 300 0
18 222 228 294 300 0
24 162 168 222 228 0
24 162 168 222 294 0
24 162 168 222 300 0
24 162 168 228 294 0
24 162 168 228 300 0
24 162 168 294 300 0
24 162 222 228 294 0
24 162 222 228 300 0
24 162 222 294 300 0
24 162 228 294 300 0
24 168 222 228 294 0
24 168 222 228 300 0
24 168 222 294 300 0
24 168 228 294 300 0
24 222 228 294 300 0
162 168 222 228 294 0
162 168 222 228 300 0
162 168 222 294 300 0
162 168 228 294 300 0
162 222 228 294 300 0
168 222 228 294 300 0
-399 -414 -759 0
-399 -414 -774 0
-399 -414 -909 0
-399 -414 -924 0
-399 -414 -1089 0
-399 -414 -1104 0
-399 -759 -774 0
-399 -759 -909 0
-399 -759 -924 0
-399 -759 -1089 0
-399 -759 -1104 0
-399 -774 -909 0
-399 -774 -924 0
-399 -774 -1089 0
-399 -774 -1104 0
-399 -909 -924 0
-399 -909 -1089 0
-399 -909 -1104 0
-399 -924 -1089 0
-399 -924 -1104 0
-399 -1089 -1104 0
-414 -759 -774 0
-414 -759 -909 0
-414 -759 -924 0
-414 -759 -1089 0
-414 -759 -1104 0
-414 -774 -909 0
-414 -774 -924 0
-414 -774 -1089 0
-414 -774 -1104 0
-414 -909 -924 0
-414 -909 -1089 0
-414 -909 -1104 0
-414 -924 -1089 0
-414 -924 -1104 0
-414 -1089 -1104 0
-759 -774 -909 0
-759 -774 -924 0
-759 -774 -1089 0
-759 -774 -1104 0
-759 -909 -924 0
-759 -909 -1089 0
-759 -909 -1104 0
-759 -924 -1089 0
-759 -924 -1104 0
-759 -1089 -1104 0
-774 -909 -924 0
-774 -909 -1089 0
-774 -909 -1104 0
-774 -924 -1089 0
-774 -924 -1104 0
-774 -1089 -1104 0
-909 -924 -1089 0
-909 -924 -1104 0
-909 -1089 -1104 0
-924 -1089 -1104 0
399 414 759 774 909 924 1089 0
399 414 759 774 909 924 1104 0
399 414 759 774 909 1089 1104 0
399 414 759 774 924 1089 1104 0
399 414 759 909 924 1089 1104 0
399 414 774 909 924 1089 1104 0
399 759 774 909 924 1089 1104 0
414 759 774 909 924 1089 1104 0
-38 -44 -182 -188 -242 0
-38 -44 -182 -188 -248 0
-38 -44 -182 -188 -314 0
-38 -44 -182 -188 -320 0
-38 -44 -182 -242 -248 0
-38 -44 -182 -242 -314 0
-38 -44 -182 -242 -320 0
-38 -44 -182 -248 -314 0
-38 -44 -182 -248 -320 0
-38 -44 -182 -314 -320 0
-38 -44 -188 -242 -248 0
-38 -44 -188 -242 -314 0
-38 -44 -188 -242 -320 0
-38 -44 -188 -248 -314 0
-38 -44 -188 -248 -320 0
-38 -44 -188 -314 -320 0
-38 -44 -242 -248 -314 0
-38 -44 -242 -248 -320 0
-38 -44 -242 -314 -320 0
-38 -44 -248 -314 -320 0
-38 -182 -188 -242 -248 0
-38 -182 -188 -242 -314 0
-38 -182 -188 -242 -320 0
-38 -182 -188 -248 -314 0
-38 -182 -188 -248 -320 0
-38 -182 -188 -314 -320 0
-38 -182 -242 -248 -314 0
-38 -182 -242 -248 -320 0
-38 -182 -242 -314 -320 0
-38 -182 -248 -314 -320 0
-38 -188 -242 -248 -314 0
-38 -188 -242 -248 -320 0
-38 -188 -242 -314 -320 0
-38 -188 -248 -314 -320 0
-38 -242 -248 -314 -320 0
-44 -182 -188 -242 -248 0
-44 -182 -188 -242 -314 0
-44 -182 -188 -242 -320 0
-44 -182 -188 -248 -314 0
-44 -182 -188 -248 -320 0
-44 -182 -188 -314 -320 0
-44 -182 -242 -248 -314 0
-44 -182 -242 -248 -320 0
-44 -182 -242 -314 -320 0
-44 -182 -248 -314 -320 0
-44 -188 -242 -248 -314 0
-44 -188 -242 -248 -320 0
-44 -188 -242 -314 -320 0
-44 -188 -248 -314 -320 0
-44 -242 -248 -314 -320 0
-182 -188 -242 -248 -314 0
-182 -188 -242 -248 -320 0
-182 -188 -242 -314 -320 0
-182 -188 -248 -314 -320 0
-182 -242 -248 -314 -320 0
-188 -242 -248 -314 -320 0
38 44 182 188 242 0
38 44 182 188 248 0
38 44 182 188 314 0
38 44 182 188 320 0
38 44 182 242 248 0
38 44 182 242 314 0
38 44 182 242 320 0
38 44 182 248 314 0
38 44 182 248 320 0
38 44 182 314 320 0
38 44 188 242 248 0
38 44 188 242 314 0
38 44 188 242 320 0
38 44 188 248 314 0
38 44 188 248 320 0
38 44 188 314 320 0
38 44 242 248 314 0
38 44 242 248 320 0
38 44 242 314 320 0
38 44 248 314 320 0
38 182 188 242 248 0
38 182 188 242 314 0
38 182 188 242 320 0
38 182 188 248 314 0
38 182 188 248 320 0
38 182 188 314 320 0
38 182 242 248 314 0
38 182 242 248 320 0
38 182 242 314 320 0
38 182 248 314 320 0
38 188 242 248 314 0
38 188 242 248 320 0
38 188 242 314 320 0
38 188 248 314 320 0
38 242 248 314 320 0
44 182 188 242 248 0
44 182 188 242 314 0
44 182 188 242 320 0
44 182 188 248 314 0
44 182 188 248 320 0
44 182 188 314 320 0
44 182 242 248 314 0
44 182 242 248 320 0
44 182 242 314 320 0
44 182 248 314 320 0
44 188 242 248 314 0
44 188 242 248 320 0
44 188 242 314 320 0
44 188 248 314 320 0
44 242 248 314 320 0
182 188 242 248 314 0
182 188 242 248 320 0
182 188 242 314 320 0
182 188 248 314 320 0
182 242 248 314 320 0
188 242 248 314 320 0
-42 -48 -186 -192 -246 0
-42 -48 -186 -192 -252 0
-42 -48 -186 -192 -318 0
-42 -48 -186 -192 -324 0
-42 -48 -186 -246 -252 0
-42 -48 -186 -246 -318 0
-42 -48 -186 -246 -324 0
-42 -48 -186 -252 -318 0
-42 -48 -186 -252 -324 0
-42 -48 -186 -318 -324 0
-42 -48 -192 -246 -252 0
-42 -48 -192 -246 -318 0
-42 -48 -192 -246 -324 0
-42 -48 -192 -252 -318 0
-42 -48 -192 -252 -324 0
-42 -48 -192 -318 -324 0
-42 -48 -246 -252 -318 0
-42 -48 -246 -252 -324 0
-42 -48 -246 -318 -324 0
-42 -48 -252 -318 -324 0
-42 -186 -192 -246 -252 0
-42 -186 -192 -246 -318 0
-42 -186 -192 -246 -324 0
-42 -186 -192 -252 -318 0
-42 -186 -192 -252 -324 0
-42 -186 -192 -318 -324 0
-42 -186 -246 -252 -318 0
-42 -186 -246 -252 -324 0
-42 -186 -246 -318 -324 0
-42 -186 -252 -318 -324 0
-42 -192 -246 -252 -318 0
-42 -192 -246 -252 -324 0
-42 -192 -246 -318 -324 0
-42 -192 -252 -318 -324 0
-42 -246 -252 -318 -324 0
-48 -186 -192 -246 -252 0
-48 -186 -192 -246 -318 0
-48 -186 -192 -246 -324 0
-48 -186 -192 -252 -318 0
-48 -186 -192 -252 -324 0
-48 -186 -192 -318 -324 0
-48 -186 -246 -252 -318 0
-48 -186 -246 -252 -324 0
-48 -186 -246 -318 -324 0
-48 -186 -252 -318 -324 0
-48 -192 -246 -252 -318 0
-48 -192 -246 -252 -324 0
-48 -192 -246 -318 -324 0
-48 -192 -252 -318 -324 0
-48 -246 -252 -318 -324 0
-186 -192 -246 -252 -318 0
-186 -192 -246 -252 -324 0
-186 -192 -246 -318 -324 0
-186 -192 -252 -318 -324 0
-186 -246 -252 -318 -324 0
-192 -246 -252 -318 -324 0
42 48 186 192 246 0
42 48 186 192 252 0
42 48 186 192 318 0
42 48 186 192 324 0
42 48 186 246 252 0
42 48 186 246 318 0
42 48 186 246 324 0
42 48 186 252 318 0
42 48 186 252 324 0
42 48 186 318 324 0
42 48 192 246 252 0
42 48 192 246 318 0
42 48 192 246 324 0
42 48 192 252 318 0
42 48 192 252 324 0
42 48 192 318 324 0
42 48 246 252 318 0
42 48 246 252 324 0
42 48 246 318 324 0
42 48 252 318 324 0
42 186 192 246 252 0
42 186 192 246 318 0
42 186 192 246 324 0
42 186 192 252 318 0
42 186 192 252 324 0
42 186 192 318 324 0
42 186 246 252 318 0
42 186 246 252 324 0
42 186 246 318 324 0
42 186 252 318 324 0
42 192 246 252 318 0
42 192 246 252 324 0
42 192 246 318 324 0
42 192 252 318 324 0
42 246 252 318 324 0
48 186 192 246 252 0
48 186 192 246 318 0
48 186 192 246 324 0
48 186 192 252 318 0
48 186 192 252 324 0
48 186 192 318 324 0
48 186 246 252 318 0
48 186 246 252 324 0
48 186 246 318 324 0
48 186 252 318 324 0
48 192 246 252 318 0
48 192 246 252 324 0
48 192 246 318 324 0
48 192 252 318 324 0
48 246 252 318 324 0
186 192 246 252 318 0
186 192 246 252 324 0
186 192 246 318 324 0
186 192 252 318 324 0
186 246 252 318 324 0
192 246 252 318 324 0
-459 -474 -819 0
-459 -474 -834 0
-459 -474 -969 0
-459 -474 -984 0
-459 -474 -1149 0
-459 -474 -1164 0
-459 -819 -834 0
-459 -819 -969 0
-459 -819 -984 0
-459 -819 -1149 0
-459 -819 -1164 0
-459 -834 -969 0
-459 -834 -984 0
-459 -834 -1149 0
-459 -834 -1164 0
-459 -969 -984 0
-459 -969 -1149 0
-459 -969 -1164 0
-459 -984 -1149 0
-459 -984 -1164 0
-459 -1149 -1164 0
-474 -819 -834 0
-474 -819 -969 0
-474 -819 -984 0
-474 -819 -1149 0
-474 -819 -1164 0
-474 -834 -969 0
-474 -834 -984 0
-474 -834 -1149 0
-474 -834 -1164 0
-474 -969 -984 0
-474 -969 -1149 0
-474 -969 -1164 0
-474 -984 -1149 0
-474 -984 -1164 0
-474 -1149 -1164 0
-819 -834 -969 0
-819 -834 -984 0
-819 -834 -1149 0
-819 -834 -1164 0
-819 -969 -984 0
-819 -969 -1149 0
-819 -969 -1164 0
-819 -984 -1149 0
-819 -984 -1164 0
-819 -1149 -1164 0
-834 -969 -984 0
-834 -969 -1149 0
-834 -969 -1164 0
-834 -984 -1149 0
-834 -984 -1164 0
-834 -1149 -1164 0
-969 -984 -1149 0
-969 -984 -1164 0
-969 -1149 -1164 0
-984 -1149 -1164 0
459 474 819 834 969 984 1149 0
459 474 819 834 969 984 1164 0
459 474 819 834 969 1149 1164 0
459 474 819 834 984 1149 1164 0
459 474 819 969 984 1149 1164 0
459 474 834 969 984 1149 1164 0
459 819 834 969 984 1149 1164 0
474 819 834 969 984 1149 1164 0
-122 -128 -134 0
-122 -128 -140 0
-122 -134 -140 0
-128 -134 -140 0
122 128 134 0
122 128 140 0
122 134 140 0
128 134 140 0
-126 -132 -138 0
-126 -132 -144 0
-126 -138 -144 0
-132 -138 -144 0
126 132 138 0
126 132 144 0
126 138 144 0
132 138 144 0
-669 -684 0
-669 -699 0
-669 -714 0
-684 -699 0
-684 -714 0
-699 -714 0
669 684 699 714 0
-39 -45 -63 0
-39 -45 -69 0
-39 -63 -69 0
-45 -63 -69 0
39 45 63 0
39 45 69 0
39 63 69 0
45 63 69 0
-40 -46 -64 0
-40 -46 -70 0
-40 -64 -70 0
-46 -64 -70 0
40 46 64 0
40 46 70 0
40 64 70 0
46 64 70 0
-460 -475 0
-460 -520 0
-460 -535 0
-475 -520 0
-475 -535 0
-520 -535 0
460 475 520 535 0
-123 -129 -147 -153 -243 0
-123 -129 -147 -153 -249 0
-123 -129 -147 -153 -351 0
-123 -129 -147 -153 -357 0
-123 -129 -147 -243 -249 0
-123 -129 -147 -243 -351 0
-123 -129 -147 -243 -357 0
-123 -129 -147 -249 -351 0
-123 -129 -147 -249 -357 0
-123 -129 -147 -351 -357 0
-123 -129 -153 -243 -249 0
-123 -129 -153 -243 -351 0
-123 -129 -153 -243 -357 0
-123 -129 -153 -249 -351 0
-123 -129 -153 -249 -357 0
-123 -129 -153 -351 -357 0
-123 -129 -243 -249 -351 0
-123 -129 -243 -249 -357 0
-123 -129 -243 -351 -357 0
-123 -129 -249 -351 -357 0
-123 -147 -153 -243 -249 0
-123 -147 -153 -243 -351 0
-123 -147 -153 -243 -357 0
-123 -147 -153 -249 -351 0
-123 -147 -153 -249 -357 0
-123 -147 -153 -351 -357 0
-123 -147 -243 -249 -351 0
-123 -147 -243 -249 -357 0
-123 -147 -243 -351 -357 0
-123 -147 -249 -351 -357 0
-123 -153 -243 -249 -351 0
-123 -153 -243 -249 -357 0
-123 -153 -243 -351 -357 0
-123 -153 -249 -351 -357 0
-123 -243 -249 -351 -357 0
-129 -147 -153 -243 -249 0
-129 -147 -153 -243 -351 0
-129 -147 -153 -243 -357 0
-129 -147 -153 -249 -351 0
-129 -147 -153 -249 -357 0
-129 -147 -153 -351 -357 0
-129 -147 -243 -249 -351 0
-129 -147 -243 -249 -357 0
-129 -147 -243 -351 -357 0
-129 -147 -249 -351 -357 0
-129 -153 -243 -249 -351 0
-129 -153 -243 -249 -357 0
-129 -153 -243 -351 -357 0
-129 -153 -249 -351 -357 0
-129 -243 -249 -351 -357 0
-147 -153 -243 -249 -351 0
-147 -153 -243 -249 -357 0
-147 -153 -243 -351 -357 0
-147 -153 -249 -351 -357 0
-147 -243 -249 -351 -357 0
-153 -243 -249 -351 -357 0
123 129 147 153 243 0
123 129 147 153 249 0
123 129 147 153 351 0
123 129 147 153 357 0
123 129 147 243 249 0
123 129 147 243 351 0
123 129 147 243 357 0
123 129 147 249 351 0
123 129 147 249 357 0
123 129 147 351 357 0
123 129 153 243 249 0
123 129 153 243 351 0
123 129 153 243 357 0
123 129 153 249 351 0
123 129 153 249 357 0
123 129 153 351 357 0
123 129 243 249 351 0
123 129 243 249 357 0
123 129 243 351 357 0
123 129 249 351 357 0
123 147 153 243 249 0
123 147 153 243 351 0
123 147 153 243 357 0
123 147 153 249 351 0
123 147 153 249 357 0
123 147 153 351 357 0
123 147 243 249 351 0
123 147 243 249 357 0
123 147 243 351 357 0
123 147 249 351 357 0
123 153 243 249 351 0
123 153 243 249 357 0
123 153 243 351 357 0
123 153 249 351 357 0
123 243 249 351 357 0
129 147 153 243 249 0
129 147 153 243 351 0
129 147 153 243 357 0
129 147 153 249 351 0
129 147 153 249 357 0
129 147 153 351 357 0
129 147 243 249 351 0
129 147 243 249 357 0
129 147 243 351 357 0
129 147 249 351 357 0
129 153 243 249 351 0
129 153 243 249 357 0
129 153 243 351 357 0
129 153 249 351 357 0
129 243 249 351 357 0
147 153 243 249 351 0
147 153 243 249 357 0
147 153 243 351 357 0
147 153 249 351 357 0
147 243 249 351 357 0
153 243 249 351 357 0
-124 -130 -148 -154 -244 0
-124 -130 -148 -154 -250 0
-124 -130 -148 -154 -352 0
-124 -130 -148 -154 -358 0
-124 -130 -148 -244 -250 0
-124 -130 -148 -244 -352 0
-124 -130 -148 -244 -358 0
-124 -130 -148 -250 -352 0
-124 -130 -148 -250 -358 0
-124 -130 -148 -352 -358 0
-124 -130 -154 -244 -250 0
-124 -130 -154 -244 -352 0
-124 -130 -154 -244 -358 0
-124 -130 -154 -250 -352 0
-124 -130 -154 -250 -358 0
-124 -130 -154 -352 -358 0
-124 -130 -244 -250 -352 0
-124 -130 -244 -250 -358 0
-124 -130 -244 -352 -358 0
-124 -130 -250 -352 -358 0
-124 -148 -154 -244 -250 0
-124 -148 -154 -244 -352 0
-124 -148 -154 -244 -358 0
-124 -148 -154 -250 -352 0
-124 -148 -154 -250 -358 0
-124 -148 -154 -352 -358 0
-124 -148 -244 -250 -352 0
-124 -148 -244 -250 -358 0
-124 -148 -244 -352 -358 0
-124 -148 -250 -352 -358 0
-124 -154 -244 -250 -352 0
-124 -154 -244 -250 -358 0
-124 -154 -244 -352 -358 0
-124 -154 -250 -352 -358 0
-124 -244 -250 -352 -358 0
-130 -148 -154 -244 -250 0
-130 -148 -154 -244 -352 0
-130 -148 -154 -244 -358 0
-130 -148 -154 -250 -352 0
-130 -148 -154 -250 -358 0
-130 -148 -154 -352 -358 0
-130 -148 -244 -250 -352 0
-130 -148 -244 -250 -358 0
-130 -148 -244 -352 -358 0
-130 -148 -250 -352 -358 0
-130 -154 -244 -250 -352 0
-130 -154 -244 -250 -358 0
-130 -154 -244 -352 -358 0
-130 -154 -250 -352 -358 0
-130 -244 -250 -352 -358 0
-148 -154 -244 -250 -352 0
-148 -154 -244 -250 -358 0
-148 -154 -244 -352 -358 0
-148 -154 -250 -352 -358 0
-148 -244 -250 -352 -358 0
-154 -244 -250 -352 -358 0
124 130 148 154 244 0
124 130 148 154 250 0
124 130 148 154 352 0
124 130 148 154 358 0
124 130 148 244 250 0
124 130 148 244 352 0
124 130 148 244 358 0
124 130 148 250 352 0
124 130 148 250 358 0
124 130 148 352 358 0
124 130 154 244 250 0
124 130 154 244 352 0
124 130 154 244 358 0
124 130 154 250 352 0
124 130 154 250 358 0
124 130 154 352 358 0
124 130 244 250 352 0
124 130 244 250 358 0
124 130 244 352 358 0
124 130 250 352 358 0
124 148 154 244 250 0
124 148 154 244 352 0
124 148 154 244 358 0
124 148 154 250 352 0
124 148 154 250 358 0
124 148 154 352 358 0
124 148 244 250 352 0
124 148 244 250 358 0
124 148 244 352 358 0
124 148 250 352 358 0
124 154 244 250 352 0
124 154 244 250 358 0
124 154 244 352 358 0
124 154 250 352 358 0
124 244 250 352 358 0
130 148 154 244 250 0
130 148 154 244 352 0
130 148 154 244 358 0
130 148 154 250 352 0
130 148 154 250 358 0
130 148 154 352 358 0
130 148 244 250 352 0
130 148 244 250 358 0
130 148 244 352 358 0
130 148 250 352 358 0
130 154 244 250 352 0
130 154 244 250 358 0
130 154 244 352 358 0
130 154 250 352 358 0
130 244 250 352 358 0
148 154 244 250 352 0
148 154 244 250 358 0
148 154 244 352 358 0
148 154 250 352 358 0
148 244 250 352 358 0
154 244 250 352 358 0
-670 -685 -730 0
-670 -685 -745 0
-670 -685 -970 0
-670 -685 -985 0
-670 -685 -1240 0
-670 -685 -1255 0
-670 -730 -745 0
-670 -730 -970 0
-670 -730 -985 0
-670 -730 -1240 0
-670 -730 -1255 0
-670 -745 -970 0
-670 -745 -985 0
-670 -745 -1240 0
-670 -745 -1255 0
-670 -970 -985 0
-670 -970 -1240 0
-670 -970 -1255 0
-670 -985 -1240 0
-670 -985 -1255 0
-670 -1240 -1255 0
-685 -730 -745 0
-685 -730 -970 0
-685 -730 -985 0
-685 -730 -1240 0
-685 -730 -1255 0
-685 -745 -970 0
-685 -745 -985 0
-685 -745 -1240 0
-685 -745 -1255 0
-685 -970 -985 0
-685 -970 -1240 0
-685 -970 -1255 0
-685 -985 -1240 0
-685 -985 -1255 0
-685 -1240 -1255 0
-730 -745 -970 0
-730 -745 -985 0
-730 -745 -1240 0
-730 -745 -1255 0
-730 -970 -985 0
-730 -970 -1240 0
-730 -970 -1255 0
-730 -985 -1240 0
-730 -985 -1255 0
-730 -1240 -1255 0
-745 -970 -985 0
-745 -970 -1240 0
-745 -970 -1255 0
-745 -985 -1240 0
-745 -985 -1255 0
-745 -1240 -1255 0
-970 -985 -1240 0
-970 -985 -1255 0
-970 -1240 -1255 0
-985 -1240 -1255 0
670 685 730 745 970 985 1240 0
670 685 730 745 970 985 1255 0
670 685 730 745 970 1240 1255 0
670 685 730 745 985 1240 1255 0
670 685 730 970 985 1240 1255 0
670 685 745 970 985 1240 1255 0
670 730 745 970 985 1240 1255 0
685 730 745 970 985 1240 1255 0
-99 -105 -159 -165 -267 0
-99 -105 -159 -165 -273 0
-99 -105 -159 -165 -327 0
-99 -105 -159 -165 -333 0
-99 -105 -159 -267 -273 0
-99 -105 -159 -267 -327 0
-99 -105 -159 -267 -333 0
-99 -105 -159 -273 -327 0
-99 -105 -159 -273 -333 0
-99 -105 -159 -327 -333 0
-99 -105 -165 -267 -273 0
-99 -105 -165 -267 -327 0
-99 -105 -165 -267 -333 0
-99 -105 -165 -273 -327 0
-99 -105 -165 -273 -333 0
-99 -105 -165 -327 -333 0
-99 -105 -267 -273 -327 0
-99 -105 -267 -273 -333 0
-99 -105 -267 -327 -333 0
-99 -105 -273 -327 -333 0
-99 -159 -165 -267 -273 0
-99 -159 -165 -267 -327 0
-99 -159 -165 -267 -333 0
-99 -159 -165 -273 -327 0
-99 -159 -165 -273 -333 0
-99 -159 -165 -327 -333 0
-99 -159 -267 -273 -327 0
-99 -159 -267 -273 -333 0
-99 -159 -267 -327 -333 0
-99 -159 -273 -327 -333 0
-99 -165 -267 -273 -327 0
-99 -165 -267 -273 -333 0
-99 -165 -267 -327 -333 0
-99 -165 -273 -327 -333 0
-99 -267 -273 -327 -333 0
-105 -159 -165 -267 -273 0
-105 -159 -165 -267 -327 0
-105 -159 -165 -267 -333 0
-105 -159 -165 -273 -327 0
-105 -159 -165 -273 -333 0
-105 -159 -165 -327 -333 0
-105 -159 -267 -273 -327 0
-105 -159 -267 -273 -333 0
-105 -159 -267 -327 -333 0
-105 -159 -273 -327 -333 0
-105 -165 -267 -273 -327 0
-105 -165 -267 -273 -333 0
-105 -165 -267 -327 -333 0
-105 -165 -273 -327 -333 0
-105 -267 -273 -327 -333 0
-159 -165 -267 -273 -327 0
-159 -165 -267 -273 -333 0
-159 -165 -267 -327 -333 0
-159 -165 -273 -327 -333 0
-159 -267 -273 -327 -333 0
-165 -267 -273 -327 -333 0
99 105 159 165 267 0
99 105 159 165 273 0
99 105 159 165 327 0
99 105 159 165 333 0
99 105 159 267 273 0
99 105 159 267 327 0
99 105 159 267 333 0
99 105 159 273 327 0
99 105 159 273 333 0
99 105 159 327 333 0
99 105 165 267 273 0
99 105 165 267 327 0
99 105 165 267 333 0
99 105 165 273 327 0
99 105 165 273 333 0
99 105 165 327 333 0
99 105 267 273 327 0
99 105 267 273 333 0
99 105 267 327 333 0
99 105 273 327 333 0
99 159 165 267 273 0
99 159 165 267 327 0
99 159 165 267 333 0
99 159 165 273 327 0
99 159 165 273 333 0
99 159 165 327 333 0
99 159 267 273 327 0
99 159 267 273 333 0
99 159 267 327 333 0
99 159 273 327 333 0
99 165 267 273 327 0
99 165 267 273 333 0
99 165 267 327 333 0
99 165 273 327 333 0
99 267 273 327 333 0
105 159 165 267 273 0
105 159 165 267 327 0
105 159 165 267 333 0
105 159 165 273 327 0
105 159 165 273 333 0
105 159 165 327 333 0
105 159 267 273 327 0
105 159 267 273 333 0
105 159 267 327 333 0
105 159 273 327 333 0
105 165 267 273 327 0
105 165 267 273 333 0
105 165 267 327 333 0
105 165 273 327 333 0
105 267 273 327 333 0
159 165 267 273 327 0
159 165 267 273 333 0
159 165 267 327 333 0
159 165 273 327 333 0
159 267 273 327 333 0
165 267 273 327 333 0
-100 -106 -160 -166 -268 0
-100 -106 -160 -166 -274 0
-100 -106 -160 -166 -328 0
-100 -106 -160 -166 -334 0
-100 -106 -160 -268 -274 0
-100 -106 -160 -268 -328 0
-100 -106 -160 -268 -334 0
-100 -106 -160 -274 -328 0
-100 -106 -160 -274 -334 0
-100 -106 -160 -328 -334 0
-100 -106 -166 -268 -274 0
-100 -106 -166 -268 -328 0
-100 -106 -166 -268 -334 0
-100 -106 -166 -274 -328 0
-100 -106 -166 -274 -334 0
-100 -106 -166 -328 -334 0
-100 -106 -268 -274 -328 0
-100 -106 -268 -274 -334 0
-100 -106 -268 -328 -334 0
-100 -106 -274 -328 -334 0
-100 -160 -166 -268 -274 0
-100 -160 -166 -268 -328 0
-100 -160 -166 -268 -334 0
-100 -160 -166 -274 -328 0
-100 -160 -166 -274 -334 0
-100 -160 -166 -328 -334 0
-100 -160 -268 -274 -328 0
-100 -160 -268 -274 -334 0
-100 -160 -268 -328 -334 0
-100 -160 -274 -328 -334 0
-100 -166 -268 -274 -328 0
-100 -166 -268 -274 -334 0
-100 -166 -268 -328 -334 0
-100 -166 -274 -328 -334 0
-100 -268 -274 -328 -334 0
-106 -160 -166 -268 -274 0
-106 -160 -166 -268 -328 0
-106 -160 -166 -268 -334 0
-106 -160 -166 -274 -328 0
-106 -160 -166 -274 -334 0
-106 -160 -166 -328 -334 0
-106 -160 -268 -274 -328 0
-106 -160 -268 -274 -334 0
-106 -160 -268 -328 -334 0
-106 -160 -274 -328 -334 0
-106 -166 -268 -274 -328 0
-106 -166 -268 -274 -334 0
-106 -166 -268 -328 -334 0
-106 -166 -274 -328 -334 0
-106 -268 -274 -328 -334 0
-160 -166 -268 -274 -328 0
-160 -166 -268 -274 -334 0
-160 -166 -268 -328 -334 0
-160 -166 -274 -328 -334 0
-160 -268 -274 -328 -334 0
-166 -268 -274 -328 -334 0
100 106 160 166 268 0
100 106 160 166 274 0
100 106 160 166 328 0
100 106 160 166 334 0
100 106 160 268 274 0
100 106 160 268 328 0
100 106 160 268 334 0
100 106 160 274 328 0
100 106 160 274 334 0
100 106 160 328 334 0
100 106 166 268 274 0
100 106 166 268 328 0
100 106 166 268 334 0
100 106 166 274 328 0
100 106 166 274 334 0
100 106 166 328 334 0
100 106 268 274 328 0
100 106 268 274 334 0
100 106 268 328 334 0
100 106 274 328 334 0
100 160 166 268 274 0
100 160 166 268 328 0
100 160 166 268 334 0
100 160 166 274 328 0
100 160 166 274 334 0
100 160 166 328 334 0
100 160 268 274 328 0
100 160 268 274 334 0
100 160 268 328 334 0
100 160 274 328 334 0
100 166 268 274 328 0
100 166 268 274 334 0
100 166 268 328 334 0
100 166 274 328 334 0
100 268 274 328 334 0
106 160 166 268 274 0
106 160 166 268 328 0
106 160 166 268 334 0
106 160 166 274 328 0
106 160 166 274 334 0
106 160 166 328 334 0
106 160 268 274 328 0
106 160 268 274 334 0
106 160 268 328 334 0
106 160 274 328 334 0
106 166 268 274 328 0
106 166 268 274 334 0
106 166 268 328 334 0
106 166 274 328 334 0
106 268 274 328 334 0
160 166 268 274 328 0
160 166 268 274 334 0
160 166 268 328 334 0
160 166 274 328 334 0
160 268 274 328 334 0
166 268 274 328 334 0
-610 -625 -760 0
-610 -625 -775 0
-610 -625 -1030 0
-610 -625 -1045 0
-610 -625 -1180 0
-610 -625 -1195 0
-610 -760 -775 0
-610 -760 -1030 0
-610 -760 -1045 0
-610 -760 -1180 0
-610 -760 -1195 0
-610 -775 -1030 0
-610 -775 -1045 0
-610 -775 -1180 0
-610 -775 -1195 0
-610 -1030 -1045 0
-610 -1030 -1180 0
-610 -1030 -1195 0
-610 -1045 -1180 0
-610 -1045 -1195 0
-610 -1180 -1195 0
-625 -760 -775 0
-625 -760 -1030 0
-625 -760 -1045 0
-625 -760 -1180 0
-625 -760 -1195 0
-625 -775 -1030 0
-625 -775 -1045 0
-625 -775 -1180 0
-625 -775 -1195 0
-625 -1030 -1045 0
-625 -1030 -1180 0
-625 -1030 -1195 0
-625 -1045 -1180 0
-625 -1045 -1195 0
-625 -1180 -1195 0
-760 -775 -1030 0
-760 -775 -1045 0
-760 -775 -1180 0
-760 -775 -1195 0
-760 -1030 -1045 0
-760 -1030 -1180 0
-760 -1030 -1195 0
-760 -1045 -1180 0
-760 -1045 -1195 0
-760 -1180 -1195 0
-775 -1030 -1045 0
-775 -1030 -1180 0
-775 -1030 -1195 0
-775 -1045 -1180 0
-775 -1045 -1195 0
-775 -1180 -1195 0
-1030 -1045 -1180 0
-1030 -1045 -1195 0
-1030 -1180 -1195 0
-1045 -1180 -1195 0
610 625 760 775 1030 1045 1180 0
610 625 760 775 1030 1045 1195 0
610 625 760 775 1030 1180 1195 0
610 625 760 775 1045 1180 1195 0
610 625 760 1030 1045 1180 1195 0
610 625 775 1030 1045 1180 1195 0
610 760 775 1030 1045 1180 1195 0
625 760 775 1030 1045 1180 1195 0
-135 -141 -171 -177 -219 0
-135 -141 -171 -177 -225 0
-135 -141 -171 -177 -339 0
-135 -141 -171 -177 -345 0
-135 -141 -171 -219 -225 0
-135 -141 -171 -219 -339 0
-135 -141 -171 -219 -345 0
-135 -141 -171 -225 -339 0
-135 -141 -171 -225 -345 0
-135 -141 -171 -339 -345 0
-135 -141 -177 -219 -225 0
-135 -141 -177 -219 -339 0
-135 -141 -177 -219 -345 0
-135 -141 -177 -225 -339 0
-135 -141 -177 -225 -345 0
-135 -141 -177 -339 -345 0
-135 -141 -219 -225 -339 0
-135 -141 -219 -225 -345 0
-135 -141 -219 -339 -345 0
-135 -141 -225 -339 -345 0
-135 -171 -177 -219 -225 0
-135 -171 -177 -219 -339 0
-135 -171 -177 -219 -345 0
-135 -171 -177 -225 -339 0
-135 -171 -177 -225 -345 0
-135 -171 -177 -339 -345 0
-135 -171 -219 -225 -339 0
-135 -171 -219 -225 -345 0
-135 -171 -219 -339 -345 0
-135 -171 -225 -339 -345 0
-135 -177 -219 -225 -339 0
-135 -177 -219 -225 -345 0
-135 -177 -219 -339 -345 0
-135 -177 -225 -339 -345 0
-135 -219 -225 -339 -345 0
-141 -171 -177 -219 -225 0
-141 -171 -177 -219 -339 0
-141 -171 -177 -219 -345 0
-141 -171 -177 -225 -339 0
-141 -171 -177 -225 -345 0
-141 -171 -177 -339 -345 0
-141 -171 -219 -225 -339 0
-141 -171 -219 -225 -345 0
-141 -171 -219 -339 -345 0
-141 -171 -225 -339 -345 0
-141 -177 -219 -225 -339 0
-141 -177 -219 -225 -345 0
-141 -177 -219 -339 -345 0
-141 -177 -225 -339 -345 0
-141 -219 -225 -339 -345 0
-171 -177 -219 -225 -339 0
-171 -177 -219 -225 -345 0
-171 -177 -219 -339 -345 0
-171 -177 -225 -339 -345 0
-171 -219 -225 -339 -345 0
-177 -219 -225 -339 -345 0
135 141 171 177 219 0
135 141 171 177 225 0
135 141 171 177 339 0
135 141 171 177 345 0
135 141 171 219 225 0
135 141 171 219 339 0
135 141 171 219 345 0
135 141 171 225 339 0
135 141 171 225 345 0
135 141 171 339 345 0
135 141 177 219 225 0
135 141 177 219 339 0
135 141 177 219 345 0
135 141 177 225 339 0
135 141 177 225 345 0
135 141 177 339 345 0
135 141 219 225 339 0
135 141 219 225 345 0
135 141 219 339 345 0
135 141 225 339 345 0
135 171 177 219 225 0
135 171 177 219 339 0
135 171 177 219 345 0
135 171 177 225 339 0
135 171 177 225 345 0
135 171 177 339 345 0
135 171 219 225 339 0
135 171 219 225 345 0
135 171 219 339 345 0
135 171 225 339 345 0
135 177 219 225 339 0
135 177 219 225 345 0
135 177 219 339 345 0
135 177 225 339 345 0
135 219 225 339 345 0
141 171 177 219 225 0
141 171 177 219 339 0
141 171 177 219 345 0
141 171 177 225 339 0
141 171 177 225 345 0
141 171 177 339 345 0
141 171 219 225 339 0
141 171 219 225 345 0
141 171 219 339 345 0
141 171 225 339 345 0
141 177 219 225 339 0
141 177 219 225 345 0
141 177 219 339 345 0
141 177 225 339 345 0
141 219 225 339 345 0
171 177 219 225 339 0
171 177 219 225 345 0
171 177 219 339 345 0
171 177 225 339 345 0
171 219 225 339 345 0
177 219 225 339 345 0
-136 -142 -172 -178 -220 0
-136 -142 -172 -178 -226 0
-136 -142 -172 -178 -340 0
-136 -142 -172 -178 -346 0
-136 -142 -172 -220 -226 0
-136 -142 -172 -220 -340 0
-136 -142 -172 -220 -346 0
-136 -142 -172 -226 -340 0
-136 -142 -172 -226 -346 0
-136 -142 -172 -340 -346 0
-136 -142 -178 -220 -226 0
-136 -142 -178 -220 -340 0
-136 -142 -178 -220 -346 0
-136 -142 -178 -226 -340 0
-136 -142 -178 -226 -346 0
-136 -142 -178 -340 -346 0
-136 -142 -220 -226 -340 0
-136 -142 -220 -226 -346 0
-136 -142 -220 -340 -346 0
-136 -142 -226 -340 -346 0
-136 -172 -178 -220 -226 0
-136 -172 -178 -220 -340 0
-136 -172 -178 -220 -346 0
-136 -172 -178 -226 -340 0
-136 -172 -178 -226 -346 0
-136 -172 -178 -340 -346 0
-136 -172 -220 -226 -340 0
-136 -172 -220 -226 -346 0
-136 -172 -220 -340 -346 0
-136 -172 -226 -340 -346 0
-136 -178 -220 -226 -340 0
-136 -178 -220 -226 -346 0
-136 -178 -220 -340 -346 0
-136 -178 -226 -340 -346 0
-136 -220 -226 -340 -346 0
-142 -172 -178 -220 -226 0
-142 -172 -178 -220 -340 0
-142 -172 -178 -220 -346 0
-142 -172 -178 -226 -340 0
-142 -172 -178 -226 -346 0
-142 -172 -178 -340 -346 0
-142 -172 -220 -226 -340 0
-142 -172 -220 -226 -346 0
-142 -172 -220 -340 -346 0
-142 -172 -226 -340 -346 0
-142 -178 -220 -226 -340 0
-142 -178 -220 -226 -346 0
-142 -178 -220 -340 -346 0
-142 -178 -226 -340 -346 0
-142 -220 -226 -340 -346 0
-172 -178 -220 -226 -340 0
-172 -178 -220 -226 -346 0
-172 -178 -220 -340 -346 0
-172 -178 -226 -340 -346 0
-172 -220 -226 -340 -346 0
-178 -220 -226 -340 -346 0
136 142 172 178 220 0
136 142 172 178 226 0
136 142 172 178 340 0
136 142 172 178 346 0
136 142 172 220 226 0
136 142 172 220 340 0
136 142 172 220 346 0
136 142 172 226 340 0
136 142 172 226 346 0
136 142 172 340 346 0
136 142 178 220 226 0
136 142 178 220 340 0
136 142 178 220 346 0
136 142 178 226 340 0
136 142 178 226 346 0
136 142 178 340 346 0
136 142 220 226 340 0
136 142 220 226 346 0
136 142 220 340 346 0
136 142 226 340 346 0
136 172 178 220 226 0
136 172 178 220 340 0
136 172 178 220 346 0
136 172 178 226 340 0
136 172 178 226 346 0
136 172 178 340 346 0
136 172 220 226 340 0
136 172 220 226 346 0
136 172 220 340 346 0
136 172 226 340 346 0
136 178 220 226 340 0
136 178 220 226 346 0
136 178 220 340 346 0
136 178 226 340 346 0
136 220 226 340 346 0
142 172 178 220 226 0
142 172 178 220 340 0
142 172 178 220 346 0
142 172 178 226 340 0
142 172 178 226 346 0
142 172 178 340 346 0
142 172 220 226 340 0
142 172 220 226 346 0
142 172 220 340 346 0
142 172 226 340 346 0
142 178 220 226 340 0
142 178 220 226 346 0
142 178 220 340 346 0
142 178 226 340 346 0
142 220 226 340 346 0
172 178 220 226 340 0
172 178 220 226 346 0
172 178 220 340 346 0
172 178 226 340 346 0
172 220 226 340 346 0
178 220 226 340 346 0
-700 -715 -790 0
-700 -715 -805 0
-700 -715 -910 0
-700 -715 -925 0
-700 -715 -1210 0
-700 -715 -1225 0
-700 -790 -805 0
-700 -790 -910 0
-700 -790 -925 0
-700 -790 -1210 0
-700 -790 -1225 0
-700 -805 -910 0
-700 -805 -925 0
-700 -805 -1210 0
-700 -805 -1225 0
-700 -910 -925 0
-700 -910 -1210 0
-700 -910 -1225 0
-700 -925 -1210 0
-700 -925 -1225 0
-700 -1210 -1225 0
-715 -790 -805 0
-715 -790 -910 0
-715 -790 -925 0
-715 -790 -1210 0
-715 -790 -1225 0
-715 -805 -910 0
-715 -805 -925 0
-715 -805 -1210 0
-715 -805 -1225 0
-715 -910 -925 0
-715 -910 -1210 0
-715 -910 -1225 0
-715 -925 -1210 0
-715 -925 -1225 0
-715 -1210 -1225 0
-790 -805 -910 0
-790 -805 -925 0
-790 -805 -1210 0
-790 -805 -1225 0
-790 -910 -925 0
-790 -910 -1210 0
-790 -910 -1225 0
-790 -925 -1210 0
-790 -925 -1225 0
-790 -1210 -1225 0
-805 -910 -925 0
-805 -910 -1210 0
-805 -910 -1225 0
-805 -925 -1210 0
-805 -925 -1225 0
-805 -1210 -1225 0
-910 -925 -1210 0
-910 -925 -1225 0
-910 -1210 -1225 0
-925 -1210 -1225 0
700 715 790 805 910 925 1210 0
700 715 790 805 910 925 1225 0
700 715 790 805 910 1210 1225 0
700 715 790 805 925 1210 1225 0
700 715 790 910 925 1210 1225 0
700 715 805 910 925 1210 1225 0
700 790 805 910 925 1210 1225 0
715 790 805 910 925 1210 1225 0
-15 -21 -51 0
-15 -21 -57 0
-15 -51 -57 0
-21 -51 -57 0
15 21 51 0
15 21 57 0
15 51 57 0
21 51 57 0
-16 -22 -52 0
-16 -22 -58 0
-16 -52 -58 0
-22 -52 -58 0
16 22 52 0
16 22 58 0
16 52 58 0
22 52 58 0
-400 -415 0
-400 -490 0
-400 -505 0
-415 -490 0
-415 -505 0
-490 -505 0
400 415 490 505 0
-75 -81 -183 -189 -279 0
-75 -81 -183 -189 -285 0
-75 -81 -183 -189 -303 0
-75 -81 -183 -189 -309 0
-75 -81 -183 -279 -285 0
-75 -81 -183 -279 -303 0
-75 -81 -183 -279 -309 0
-75 -81 -183 -285 -303 0
-75 -81 -183 -285 -309 0
-75 -81 -183 -303 -309 0
-75 -81 -189 -279 -285 0
-75 -81 -189 -279 -303 0
-75 -81 -189 -279 -309 0
-75 -81 -189 -285 -303 0
-75 -81 -189 -285 -309 0
-75 -81 -189 -303 -309 0
-75 -81 -279 -285 -303 0
-75 -81 -279 -285 -309 0
-75 -81 -279 -303 -309 0
-75 -81 -285 -303 -309 0
-75 -183 -189 -279 -285 0
-75 -183 -189 -279 -303 0
-75 -183 -189 -279 -309 0
-75 -183 -189 -285 -303 0
-75 -183 -189 -285 -309 0
-75 -183 -189 -303 -309 0
-75 -183 -279 -285 -303 0
-75 -183 -279 -285 -309 0
-75 -183 -279 -303 -309 0
-75 -183 -285 -303 -309 0
-75 -189 -279 -285 -303 0
-75 -189 -279 -285 -309 0
-75 -189 -279 -303 -309 0
-75 -189 -285 -303 -309 0
-75 -279 -285 -303 -309 0
-81 -183 -189 -279 -285 0
-81 -183 -189 -279 -303 0
-81 -183 -189 -279 -309 0
-81 -183 -189 -285 -303 0
-81 -183 -189 -285 -309 0
-81 -183 -189 -303 -309 0
-81 -183 -279 -285 -303 0
-81 -183 -279 -285 -309 0
-81 -183 -279 -303 -309 0
-81 -183 -285 -303 -309 0
-81 -189 -279 -285 -303 0
-81 -189 -279 -285 -309 0
-81 -189 -279 -303 -309 0
-81 -189 -285 -303 -309 0
-81 -279 -285 -303 -309 0
-183 -189 -279 -285 -303 0
-183 -189 -279 -285 -309 0
-183 -189 -279 -303 -309 0
-183 -189 -285 -303 -309 0
-183 -279 -285 -303 -309 0
-189 -279 -285 -303 -309 0
75 81 183 189 279 0
75 81 183 189 285 0
75 81 183 189 303 0
75 81 183 189 309 0
75 81 183 279 285 0
75 81 183 279 303 0
75 81 183 279 309 0
75 81 183 285 303 0
75 81 183 285 309 0
75 81 183 303 309 0
75 81 189 279 285 0
75 81 189 279 303 0
75 81 189 279 309 0
75 81 189 285 303 0
75 81 189 285 309 0
75 81 189 303 309 0
75 81 279 285 303 0
75 81 279 285 309 0
75 81 279 303 309 0
75 81 285 303 309 0
75 183 189 279 285 0
75 183 189 279 303 0
75 183 189 279 309 0
75 183 189 285 303 0
75 183 189 285 309 0
75 183 189 303 309 0
75 183 279 285 303 0
75 183 279 285 309 0
75 183 279 303 309 0
75 183 285 303 309 0
75 189 279 285 303 0
75 189 279 285 309 0
75 189 279 303 309 0
75 189 285 303 309 0
75 279 285 303 309 0
81 183 189 279 285 0
81 183 189 279 303 0
81 183 189 279 309 0
81 183 189 285 303 0
81 183 189 285 309 0
81 183 189 303 309 0
81 183 279 285 303 0
81 183 279 285 309 0
81 183 279 303 309 0
81 183 285 303 309 0
81 189 279 285 303 0
81 189 279 285 309 0
81 189 279 303 309 0
81 189 285 303 309 0
81 279 285 303 309 0
183 189 279 285 303 0
183 189 279 285 309 0
183 189 279 303 309 0
183 189 285 303 309 0
183 279 285 303 309 0
189 279 285 303 309 0
-76 -82 -184 -190 -280 0
-76 -82 -184 -190 -286 0
-76 -82 -184 -190 -304 0
-76 -82 -184 -190 -310 0
-76 -82 -184 -280 -286 0
-76 -82 -184 -280 -304 0
-76 -82 -184 -280 -310 0
-76 -82 -184 -286 -304 0
-76 -82 -184 -286 -310 0
-76 -82 -184 -304 -310 0
-76 -82 -190 -280 -286 0
-76 -82 -190 -280 -304 0
-76 -82 -190 -280 -310 0
-76 -82 -190 -286 -304 0
-76 -82 -190 -286 -310 0
-76 -82 -190 -304 -310 0
-76 -82 -280 -286 -304 0
-76 -82 -280 -286 -310 0
-76 -82 -280 -304 -310 0
-76 -82 -286 -304 -310 0
-76 -184 -190 -280 -286 0
-76 -184 -190 -280 -304 0
-76 -184 -190 -280 -310 0
-76 -184 -190 -286 -304 0
-76 -184 -190 -286 -310 0
-76 -184 -190 -304 -310 0
-76 -184 -280 -286 -304 0
-76 -184 -280 -286 -310 0
-76 -184 -280 -304 -310 0
-76 -184 -286 -304 -310 0
-76 -190 -280 -286 -304 0
-76 -190 -280 -286 -310 0
-76 -190 -280 -304 -310 0
-76 -190 -286 -304 -310 0
-76 -280 -286 -304 -310 0
-82 -184 -190 -280 -286 0
-82 -184 -190 -280 -304 0
-82 -184 -190 -280 -310 0
-82 -184 -190 -286 -304 0
-82 -184 -190 -286 -310 0
-82 -184 -190 -304 -310 0
-82 -184 -280 -286 -304 0
-82 -184 -280 -286 -310 0
-82 -184 -280 -304 -310 0
-82 -184 -286 -304 -310 0
-82 -190 -280 -286 -304 0
-82 -190 -280 -286 -310 0
-82 -190 -280 -304 -310 0
-82 -190 -286 -304 -310 0
-82 -280 -286 -304 -310 0
-184 -190 -280 -286 -304 0
-184 -190 -280 -286 -310 0
-184 -190 -280 -304 -310 0
-184 -190 -286 -304 -310 0
-184 -280 -286 -304 -310 0
-190 -280 -286 -304 -310 0
76 82 184 190 280 0
76 82 184 190 286 0
76 82 184 190 304 0
76 82 184 190 310 0
76 82 184 280 286 0
76 82 184 280 304 0
76 82 184 280 310 0
76 82 184 286 304 0
76 82 184 286 310 0
76 82 184 304 310 0
76 82 190 280 286 0
76 82 190 280 304 0
76 82 190 280 310 0
76 82 190 286 304 0
76 82 190 286 310 0
76 82 190 304 310 0
76 82 280 286 304 0
76 82 280 286 310 0
76 82 280 304 310 0
76 82 286 304 310 0
76 184 190 280 286 0
76 184 190 280 304 0
76 184 190 280 310 0
76 184 190 286 304 0
76 184 190 286 310 0
76 184 190 304 310 0
76 184 280 286 304 0
76 184 280 286 310 0
76 184 280 304 310 0
76 184 286 304 310 0
76 190 280 286 304 0
76 190 280 286 310 0
76 190 280 304 310 0
76 190 286 304 310 0
76 280 286 304 310 0
82 184 190 280 286 0
82 184 190 280 304 0
82 184 190 280 310 0
82 184 190 286 304 0
82 184 190 286 310 0
82 184 190 304 310 0
82 184 280 286 304 0
82 184 280 286 310 0
82 184 280 304 310 0
82 184 286 304 310 0
82 190 280 286 304 0
82 190 280 286 310 0
82 190 280 304 310 0
82 190 286 304 310 0
82 280 286 304 310 0
184 190 280 286 304 0
184 190 280 286 310 0
184 190 280 304 310 0
184 190 286 304 310 0
184 280 286 304 310 0
190 280 286 304 310 0
-550 -565 -820 0
-550 -565 -835 0
-550 -565 -1060 0
-550 -565 -1075 0
-550 -565 -1120 0
-550 -565 -1135 0
-550 -820 -835 0
-550 -820 -1060 0
-550 -820 -1075 0
-550 -820 -1120 0
-550 -820 -1135 0
-550 -835 -1060 0
-550 -835 -1075 0
-550 -835 -1120 0
-550 -835 -1135 0
-550 -1060 -1075 0
-550 -1060 -1120 0
-550 -1060 -1135 0
-550 -1075 -1120 0
-550 -1075 -1135 0
-550 -1120 -1135 0
-565 -820 -835 0
-565 -820 -1060 0
-565 -820 -1075 0
-565 -820 -1120 0
-565 -820 -1135 0
-565 -835 -1060 0
-565 -835 -1075 0
-565 -835 -1120 0
-565 -835 -1135 0
-565 -1060 -1075 0
-565 -1060 -1120 0
-565 -1060 -1135 0
-565 -1075 -1120 0
-565 -1075 -1135 0
-565 -1120 -1135 0
-820 -835 -1060 0
-820 -835 -1075 0
-820 -835 -1120 0
-820 -835 -1135 0
-820 -1060 -1075 0
-820 -1060 -1120 0
-820 -1060 -1135 0
-820 -1075 -1120 0
-820 -1075 -1135 0
-820 -1120 -1135 0
-835 -1060 -1075 0
-835 -1060 -1120 0
-835 -1060 -1135 0
-835 -1075 -1120 0
-835 -1075 -1135 0
-835 -1120 -1135 0
-1060 -1075 -1120 0
-1060 -1075 -1135 0
-1060 -1120 -1135 0
-1075 -1120 -1135 0
550 565 820 835 1060 1075 1120 0
550 565 820 835 1060 1075 1135 0
550 565 820 835 1060 1120 1135 0
550 565 820 835 1075 1120 1135 0
550 565 820 1060 1075 1120 1135 0
550 565 835 1060 1075 1120 1135 0
550 820 835 1060 1075 1120 1135 0
565 820 835 1060 1075 1120 1135 0
-111 -117 -195 -201 -231 0
-111 -117 -195 -201 -237 0
-111 -117 -195 -201 -315 0
-111 -117 -195 -201 -321 0
-111 -117 -195 -231 -237 0
-111 -117 -195 -231 -315 0
-111 -117 -195 -231 -321 0
-111 -117 -195 -237 -315 0
-111 -117 -195 -237 -321 0
-111 -117 -195 -315 -321 0
-111 -117 -201 -231 -237 0
-111 -117 -201 -231 -315 0
-111 -117 -201 -231 -321 0
-111 -117 -201 -237 -315 0
-111 -117 -201 -237 -321 0
-111 -117 -201 -315 -321 0
-111 -117 -231 -237 -315 0
-111 -117 -231 -237 -321 0
-111 -117 -231 -315 -321 0
-111 -117 -237 -315 -321 0
-111 -195 -201 -231 -237 0
-111 -195 -201 -231 -315 0
-111 -195 -201 -231 -321 0
-111 -195 -201 -237 -315 0
-111 -195 -201 -237 -321 0
-111 -195 -201 -315 -321 0
-111 -195 -231 -237 -315 0
-111 -195 -231 -237 -321 0
-111 -195 -231 -315 -321 0
-111 -195 -237 -315 -321 0
-111 -201 -231 -237 -315 0
-111 -201 -231 -237 -321 0
-111 -201 -231 -315 -321 0
-111 -201 -237 -315 -321 0
-111 -231 -237 -315 -321 0
-117 -195 -201 -231 -237 0
-117 -195 -201 -231 -315 0
-117 -195 -201 -231 -321 0
-117 -195 -201 -237 -315 0
-117 -195 -201 -237 -321 0
-117 -195 -201 -315 -321 0
-117 -195 -231 -237 -315 0
-117 -195 -231 -237 -321 0
-117 -195 -231 -315 -321 0
-117 -195 -237 -315 -321 0
-117 -201 -231 -237 -315 0
-117 -201 -231 -237 -321 0
-117 -201 -231 -315 -321 0
-117 -201 -237 -315 -321 0
-117 -231 -237 -315 -321 0
-195 -201 -231 -237 -315 0
-195 -201 -231 -237 -321 0
-195 -201 -231 -315 -321 0
-195 -201 -237 -315 -321 0
-195 -231 -237 -315 -321 0
-201 -231 -237 -315 -321 0
111 117 195 201 231 0
111 117 195 201 237 0
111 117 195 201 315 0
111 117 195 201 321 0
111 117 195 231 237 0
111 117 195 231 315 0
111 117 195 231 321 0
111 117 195 237 315 0
111 117 195 237 321 0
111 117 195 315 321 0
111 117 201 231 237 0
111 117 201 231 315 0
111 117 201 231 321 0
111 117 201 237 315 0
111 117 201 237 321 0
111 117 201 315 321 0
111 117 231 237 315 0
111 117 231 237 321 0
111 117 231 315 321 0
111 117 237 315 321 0
111 195 201 231 237 0
111 195 201 231 315 0
111 195 201 231 321 0
111 195 201 237 315 0
111 195 201 237 321 0
111 195 201 315 321 0
111 195 231 237 315 0
111 195 231 237 321 0
111 195 231 315 321 0
111 195 237 315 321 0
111 201 231 237 315 0
111 201 231 237 321 0
111 201 231 315 321 0
111 201 237 315 321 0
111 231 237 315 321 0
117 195 201 231 237 0
117 195 201 231 315 0
117 195 201 231 321 0
117 195 201 237 315 0
117 195 201 237 321 0
117 195 201 315 321 0
117 195 231 237 315 0
117 195 231 237 321 0
117 195 231 315 321 0
117 195 237 315 321 0
117 201 231 237 315 0
117 201 231 237 321 0
117 201 231 315 321 0
117 201 237 315 321 0
117 231 237 315 321 0
195 201 231 237 315 0
195 201 231 237 321 0
195 201 231 315 321 0
195 201 237 315 321 0
195 231 237 315 321 0
201 231 237 315 321 0
-112 -118 -196 -202 -232 0
-112 -118 -196 -202 -238 0
-112 -118 -196 -202 -316 0
-112 -118 -196 -202 -322 0
-112 -118 -196 -232 -238 0
-112 -118 -196 -232 -316 0
-112 -118 -196 -232 -322 0
-112 -118 -196 -238 -316 0
-112 -118 -196 -238 -322 0
-112 -118 -196 -316 -322 0
-112 -118 -202 -232 -238 0
-112 -118 -202 -232 -316 0
-112 -118 -202 -232 -322 0
-112 -118 -202 -238 -316 0
-112 -118 -202 -238 -322 0
-112 -118 -202 -316 -322 0
-112 -118 -232 -238 -316 0
-112 -118 -232 -238 -322 0
-112 -118 -232 -316 -322 0
-112 -118 -238 -316 -322 0
-112 -196 -202 -232 -238 0
-112 -196 -202 -232 -316 0
-112 -196 -202 -232 -322 0
-112 -196 -202 -238 -316 0
-112 -196 -202 -238 -322 0
-112 -196 -202 -316 -322 0
-112 -196 -232 -238 -316 0
-112 -196 -232 -238 -322 0
-112 -196 -232 -316 -322 0
-112 -196 -238 -316 -322 0
-112 -202 -232 -238 -316 0
-112 -202 -232 -238 -322 0
-112 -202 -232 -316 -322 0
-112 -202 -238 -316 -322 0
-112 -232 -238 -316 -322 0
-118 -196 -202 -232 -238 0
-118 -196 -202 -232 -316 0
-118 -196 -202 -232 -322 0
-118 -196 -202 -238 -316 0
-118 -196 -202 -238 -322 0
-118 -196 -202 -316 -322 0
-118 -196 -232 -238 -316 0
-118 -196 -232 -238 -322 0
-118 -196 -232 -316 -322 0
-118 -196 -238 -316 -322 0
-118 -202 -232 -238 -316 0
-118 -202 -232 -238 -322 0
-118 -202 -232 -316 -322 0
-118 -202 -238 -316 -322 0
-118 -232 -238 -316 -322 0
-196 -202 -232 -238 -316 0
-196 -202 -232 -238 -322 0
-196 -202 -232 -316 -322 0
-196 -202 -238 -316 -322 0
-196 -232 -238 -316 -322 0
-202 -232 -238 -316 -322 0
112 118 196 202 232 0
112 118 196 202 238 0
112 118 196 202 316 0
112 118 196 202 322 0
112 118 196 232 238 0
112 118 196 232 316 0
112 118 196 232 322 0
112 118 196 238 316 0
112 118 196 238 322 0
112 118 196 316 322 0
112 118 202 232 238 0
112 118 202 232 316 0
112 118 202 232 322 0
112 118 202 238 316 0
112 118 202 238 322 0
112 118 202 316 322 0
112 118 232 238 316 0
112 118 232 238 322 0
112 118 232 316 322 0
112 118 238 316 322 0
112 196 202 232 238 0
112 196 202 232 316 0
112 196 202 232 322 0
112 196 202 238 316 0
112 196 202 238 322 0
112 196 202 316 322 0
112 196 232 238 316 0
112 196 232 238 322 0
112 196 232 316 322 0
112 196 238 316 322 0
112 202 232 238 316 0
112 202 232 238 322 0
112 202 232 316 322 0
112 202 238 316 322 0
112 232 238 316 322 0
118 196 202 232 238 0
118 196 202 232 316 0
118 196 202 232 322 0
118 196 202 238 316 0
118 196 202 238 322 0
118 196 202 316 322 0
118 196 232 238 316 0
118 196 232 238 322 0
118 196 232 316 322 0
118 196 238 316 322 0
118 202 232 238 316 0
118 202 232 238 322 0
118 202 232 316 322 0
118 202 238 316 322 0
118 232 238 316 322 0
196 202 232 238 316 0
196 202 232 238 322 0
196 202 232 316 322 0
196 202 238 316 322 0
196 232 238 316 322 0
202 232 238 316 322 0
-640 -655 -850 0
-640 -655 -865 0
-640 -655 -940 0
-640 -655 -955 0
-640 -655 -1150 0
-640 -655 -1165 0
-640 -850 -865 0
-640 -850 -940 0
-640 -850 -955 0
-640 -850 -1150 0
-640 -850 -1165 0
-640 -865 -940 0
-640 -865 -955 0
-640 -865 -1150 0
-640 -865 -1165 0
-640 -940 -955 0
-640 -940 -1150 0
-640 -940 -1165 0
-640 -955 -1150 0
-640 -955 -1165 0
-640 -1150 -1165 0
-655 -850 -865 0
-655 -850 -940 0
-655 -850 -955 0
-655 -850 -1150 0
-655 -850 -1165 0
-655 -865 -940 0
-655 -865 -955 0
-655 -865 -1150 0
-655 -865 -1165 0
-655 -940 -955 0
-655 -940 -1150 0
-655 -940 -1165 0
-655 -955 -1150 0
-655 -955 -1165 0
-655 -1150 -1165 0
-850 -865 -940 0
-850 -865 -955 0
-850 -865 -1150 0
-850 -865 -1165 0
-850 -940 -955 0
-850 -940 -1150 0
-850 -940 -1165 0
-850 -955 -1150 0
-850 -955 -1165 0
-850 -1150 -1165 0
-865 -940 -955 0
-865 -940 -1150 0
-865 -940 -1165 0
-865 -955 -1150 0
-865 -955 -1165 0
-865 -1150 -1165 0
-940 -955 -1150 0
-940 -955 -1165 0
-940 -1150 -1165 0
-955 -1150 -1165 0
640 655 850 865 940 955 1150 0
640 655 850 865 940 955 1165 0
640 655 850 865 940 1150 1165 0
640 655 850 865 955 1150 1165 0
640 655 850 940 955 1150 1165 0
640 655 865 940 955 1150 1165 0
640 850 865 940 955 1150 1165 0
655 850 865 940 955 1150 1165 0
-87 -93 -207 -213 -255 0
-87 -93 -207 -213 -261 0
-87 -93 -207 -213 -291 0
-87 -93 -207 -213 -297 0
-87 -93 -207 -255 -261 0
-87 -93 -207 -255 -291 0
-87 -93 -207 -255 -297 0
-87 -93 -207 -261 -291 0
-87 -93 -207 -261 -297 0
-87 -93 -207 -291 -297 0
-87 -93 -213 -255 -261 0
-87 -93 -213 -255 -291 0
-87 -93 -213 -255 -297 0
-87 -93 -213 -261 -291 0
-87 -93 -213 -261 -297 0
-87 -93 -213 -291 -297 0
-87 -93 -255 -261 -291 0
-87 -93 -255 -261 -297 0
-87 -93 -255 -291 -297 0
-87 -93 -261 -291 -297 0
-87 -207 -213 -255 -261 0
-87 -207 -213 -255 -291 0
-87 -207 -213 -255 -297 0
-87 -207 -213 -261 -291 0
-87 -207 -213 -261 -297 0
-87 -207 -213 -291 -297 0
-87 -207 -255 -261 -291 0
-87 -207 -255 -261 -297 0
-87 -207 -255 -291 -297 0
-87 -207 -261 -291 -297 0
-87 -213 -255 -261 -291 0
-87 -213 -255 -261 -297 0
-87 -213 -255 -291 -297 0
-87 -213 -261 -291 -297 0
-87 -255 -261 -291 -297 0
-93 -207 -213 -255 -261 0
-93 -207 -213 -255 -291 0
-93 -207 -213 -255 -297 0
-93 -207 -213 -261 -291 0
-93 -207 -213 -261 -297 0
-93 -207 -213 -291 -297 0
-93 -207 -255 -261 -291 0
-93 -207 -255 -261 -297 0
-93 -207 -255 -291 -297 0
-93 -207 -261 -291 -297 0
-93 -213 -255 -261 -291 0
-93 -213 -255 -261 -297 0
-93 -213 -255 -291 -297 0
-93 -213 -261 -291 -297 0
-93 -255 -261 -291 -297 0
-207 -213 -255 -261 -291 0
-207 -213 -255 -261 -297 0
-207 -213 -255 -291 -297 0
-207 -213 -261 -291 -297 0
-207 -255 -261 -291 -297 0
-213 -255 -261 -291 -297 0
87 93 207 213 255 0
87 93 207 213 261 0
87 93 207 213 291 0
87 93 207 213 297 0
87 93 207 255 261 0
87 93 207 255 291 0
87 93 207 255 297 0
87 93 207 261 291 0
87 93 207 261 297 0
87 93 207 291 297 0
87 93 213 255 261 0
87 93 213 255 291 0
87 93 213 255 297 0
87 93 213 261 291 0
87 93 213 261 297 0
87 93 213 291 297 0
87 93 255 261 291 0
87 93 255 261 297 0
87 93 255 291 297 0
87 93 261 291 297 0
87 207 213 255 261 0
87 207 213 255 291 0
87 207 213 255 297 0
87 207 213 261 291 0
87 207 213 261 297 0
87 207 213 291 297 0
87 207 255 261 291 0
87 207 255 261 297 0
87 207 255 291 297 0
87 207 261 291 297 0
87 213 255 261 291 0
87 213 255 261 297 0
87 213 255 291 297 0
87 213 261 291 297 0
87 255 261 291 297 0
93 207 213 255 261 0
93 207 213 255 291 0
93 207 213 255 297 0
93 207 213 261 291 0
93 207 213 261 297 0
93 207 213 291 297 0
93 207 255 261 291 0
93 207 255 261 297 0
93 207 255 291 297 0
93 207 261 291 297 0
93 213 255 261 291 0
93 213 255 261 297 0
93 213 255 291 297 0
93 213 261 291 297 0
93 255 261 291 297 0
207 213 255 261 291 0
207 213 255 261 297 0
207 213 255 291 297 0
207 213 261 291 297 0
207 255 261 291 297 0
213 255 261 291 297 0
-88 -94 -208 -214 -256 0
-88 -94 -208 -214 -262 0
-88 -94 -208 -214 -292 0
-88 -94 -208 -214 -298 0
-88 -94 -208 -256 -262 0
-88 -94 -208 -256 -292 0
-88 -94 -208 -256 -298 0
-88 -94 -208 -262 -292 0
-88 -94 -208 -262 -298 0
-88 -94 -208 -292 -298 0
-88 -94 -214 -256 -262 0
-88 -94 -214 -256 -292 0
-88 -94 -214 -256 -298 0
-88 -94 -214 -262 -292 0
-88 -94 -214 -262 -298 0
-88 -94 -214 -292 -298 0
-88 -94 -256 -262 -292 0
-88 -94 -256 -262 -298 0
-88 -94 -256 -292 -298 0
-88 -94 -262 -292 -298 0
-88 -208 -214 -256 -262 0
-88 -208 -214 -256 -292 0
-88 -208 -214 -256 -298 0
-88 -208 -214 -262 -292 0
-88 -208 -214 -262 -298 0
-88 -208 -214 -292 -298 0
-88 -208 -256 -262 -292 0
-88 -208 -256 -262 -298 0
-88 -208 -256 -292 -298 0
-88 -208 -262 -292 -298 0
-88 -214 -256 -262 -292 0
-88 -214 -256 -262 -298 0
-88 -214 -256 -292 -298 0
-88 -214 -262 -292 -298 0
-88 -256 -262 -292 -298 0
-94 -208 -214 -256 -262 0
-94 -208 -214 -256 -292 0
-94 -208 -214 -256 -298 0
-94 -208 -214 -262 -292 0
-94 -208 -214 -262 -298 0
-94 -208 -214 -292 -298 0
-94 -208 -256 -262 -292 0
-94 -208 -256 -262 -298 0
-94 -208 -256 -292 -298 0
-94 -208 -262 -292 -298 0
-94 -214 -256 -262 -292 0
-94 -214 -256 -262 -298 0
-94 -214 -256 -292 -298 0
-94 -214 -262 -292 -298 0
-94 -256 -262 -292 -298 0
-208 -214 -256 -262 -292 0
-208 -214 -256 -262 -298 0
-208 -214 -256 -292 -298 0
-208 -214 -262 -292 -298 0
-208 -256 -262 -292 -298 0
-214 -256 -262 -292 -298 0
88 94 208 214 256 0
88 94 208 214 262 0
88 94 208 214 292 0
88 94 208 214 298 0
88 94 208 256 262 0
88 94 208 256 292 0
88 94 208 256 298 0
88 94 208 262 292 0
88 94 208 262 298 0
88 94 208 292 298 0
88 94 214 256 262 0
88 94 214 256 292 0
88 94 214 256 298 0
88 94 214 262 292 0
88 94 214 262 298 0
88 94 214 292 298 0
88 94 256 262 292 0
88 94 256 262 298 0
88 94 256 292 298 0
88 94 262 292 298 0
88 208 214 256 262 0
88 208 214 256 292 0
88 208 214 256 298 0
88 208 214 262 292 0
88 208 214 262 298 0
88 208 214 292 298 0
88 208 256 262 292 0
88 208 256 262 298 0
88 208 256 292 298 0
88 208 262 292 298 0
88 214 256 262 292 0
88 214 256 262 298 0
88 214 256 292 298 0
88 214 262 292 298 0
88 256 262 292 298 0
94 208 214 256 262 0
94 208 214 256 292 0
94 208 214 256 298 0
94 208 214 262 292 0
94 208 214 262 298 0
94 208 214 292 298 0
94 208 256 262 292 0
94 208 256 262 298 0
94 208 256 292 298 0
94 208 262 292 298 0
94 214 256 262 292 0
94 214 256 262 298 0
94 214 256 292 298 0
94 214 262 292 298 0
94 256 262 292 298 0
208 214 256 262 292 0
208 214 256 262 298 0
208 214 256 292 298 0
208 214 262 292 298 0
208 256 262 292 298 0
214 256 262 292 298 0
-580 -595 -880 0
-580 -595 -895 0
-580 -595 -1000 0
-580 -595 -1015 0
-580 -595 -1090 0
-580 -595 -1105 0
-580 -880 -895 0
-580 -880 -1000 0
-580 -880 -1015 0
-580 -880 -1090 0
-580 -880 -1105 0
-580 -895 -1000 0
-580 -895 -1015 0
-580 -895 -1090 0
-580 -895 -1105 0
-580 -1000 -1015 0
-580 -1000 -1090 0
-580 -1000 -1105 0
-580 -1015 -1090 0
-580 -1015 -1105 0
-580 -1090 -1105 0
-595 -880 -895 0
-595 -880 -1000 0
-595 -880 -1015 0
-595 -880 -1090 0
-595 -880 -1105 0
-595 -895 -1000 0
-595 -895 -1015 0
-595 -895 -1090 0
-595 -895 -1105 0
-595 -1000 -1015 0
-595 -1000 -1090 0
-595 -1000 -1105 0
-595 -1015 -1090 0
-595 -1015 -1105 0
-595 -1090 -1105 0
-880 -895 -1000 0
-880 -895 -1015 0
-880 -895 -1090 0
-880 -895 -1105 0
-880 -1000 -1015 0
-880 -1000 -1090 0
-880 -1000 -1105 0
-880 -1015 -1090 0
-880 -1015 -1105 0
-880 -1090 -1105 0
-895 -1000 -1015 0
-895 -1000 -1090 0
-895 -1000 -1105 0
-895 -1015 -1090 0
-895 -1015 -1105 0
-895 -1090 -1105 0
-1000 -1015 -1090 0
-1000 -1015 -1105 0
-1000 -1090 -1105 0
-1015 -1090 -1105 0
580 595 880 895 1000 1015 1090 0
580 595 880 895 1000 1015 1105 0
580 595 880 895 1000 1090 1105 0
580 595 880 895 1015 1090 1105 0
580 595 880 1000 1015 1090 1105 0
580 595 895 1000 1015 1090 1105 0
580 880 895 1000 1015 1090 1105 0
595 880 895 1000 1015 1090 1105 0
-3 -9 -27 0
-3 -9 -33 0
-3 -27 -33 0
-9 -27 -33 0
3 9 27 0
3 9 33 0
3 27 33 0
9 27 33 0
-4 -10 -28 0
-4 -10 -34 0
-4 -28 -34 0
-10 -28 -34 0
4 10 28 0
4 10 34 0
4 28 34 0
10 28 34 0
-370 -385 0
-370 -430 0
-370 -445 0
-385 -430 0
-385 -445 0
-430 -445 0
370 385 430 445 0
-243 -249 -267 0
-243 -249 -273 0
-243 -267 -273 0
-249 -267 -273 0
243 249 267 0
243 249 273 0
243 267 273 0
249 267 273 0
-245 -251 -269 0
-245 -251 -275 0
-245 -269 -275 0
-251 -269 -275 0
245 251 269 0
245 251 275 0
245 269 275 0
251 269 275 0
-971 -986 0
-971 -1031 0
-971 -1046 0
-986 -1031 0
-986 -1046 0
-1031 -1046 0
971 986 1031 1046 0
-63 -69 -123 -129 -159 0
-63 -69 -123 -129 -165 0
-63 -69 -123 -129 -327 0
-63 -69 -123 -129 -333 0
-63 -69 -123 -159 -165 0
-63 -69 -123 -159 -327 0
-63 -69 -123 -159 -333 0
-63 -69 -123 -165 -327 0
-63 -69 -123 -165 -333 0
-63 -69 -123 -327 -333 0
-63 -69 -129 -159 -165 0
-63 -69 -129 -159 -327 0
-63 -69 -129 -159 -333 0
-63 -69 -129 -165 -327 0
-63 -69 -129 -165 -333 0
-63 -69 -129 -327 -333 0
-63 -69 -159 -165 -327 0
-63 -69 -159 -165 -333 0
-63 -69 -159 -327 -333 0
-63 -69 -165 -327 -333 0
-63 -123 -129 -159 -165 0
-63 -123 -129 -159 -327 0
-63 -123 -129 -159 -333 0
-63 -123 -129 -165 -327 0
-63 -123 -129 -165 -333 0
-63 -123 -129 -327 -333 0
-63 -123 -159 -165 -327 0
-63 -123 -159 -165 -333 0
-63 -123 -159 -327 -333 0
-63 -123 -165 -327 -333 0
-63 -129 -159 -165 -327 0
-63 -129 -159 -165 -333 0
-63 -129 -159 -327 -333 0
-63 -129 -165 -327 -333 0
-63 -159 -165 -327 -333 0
-69 -123 -129 -159 -165 0
-69 -123 -129 -159 -327 0
-69 -123 -129 -159 -333 0
-69 -123 -129 -165 -327 0
-69 -123 -129 -165 -333 0
-69 -123 -129 -327 -333 0
-69 -123 -159 -165 -327 0
-69 -123 -159 -165 -333 0
-69 -123 -159 -327 -333 0
-69 -123 -165 -327 -333 0
-69 -129 -159 -165 -327 0
-69 -129 -159 -165 -333 0
-69 -129 -159 -327 -333 0
-69 -129 -165 -327 -333 0
-69 -159 -165 -327 -333 0
-123 -129 -159 -165 -327 0
-123 -129 -159 -165 -333 0
-123 -129 -159 -327 -333 0
-123 -129 -165 -327 -333 0
-123 -159 -165 -327 -333 0
-129 -159 -165 -327 -333 0
63 69 123 129 159 0
63 69 123 129 165 0
63 69 123 129 327 0
63 69 123 129 333 0
63 69 123 159 165 0
63 69 123 159 327 0
63 69 123 159 333 0
63 69 123 165 327 0
63 69 123 165 333 0
63 69 123 327 333 0
63 69 129 159 165 0
63 69 129 159 327 0
63 69 129 159 333 0
63 69 129 165 327 0
63 69 129 165 333 0
63 69 129 327 333 0
63 69 159 165 327 0
63 69 159 165 333 0
63 69 159 327 333 0
63 69 165 327 333 0
63 123 129 159 165 0
63 123 129 159 327 0
63 123 129 159 333 0
63 123 129 165 327 0
63 123 129 165 333 0
63 123 129 327 333 0
63 123 159 165 327 0
63 123 159 165 333 0
63 123 159 327 333 0
63 123 165 327 333 0
63 129 159 165 327 0
63 129 159 165 333 0
63 129 159 327 333 0
63 129 165 327 333 0
63 159 165 327 333 0
69 123 129 159 165 0
69 123 129 159 327 0
69 123 129 159 333 0
69 123 129 165 327 0
69 123 129 165 333 0
69 123 129 327 333 0
69 123 159 165 327 0
69 123 159 165 333 0
69 123 159 327 333 0
69 123 165 327 333 0
69 129 159 165 327 0
69 129 159 165 333 0
69 129 159 327 333 0
69 129 165 327 333 0
69 159 165 327 333 0
123 129 159 165 327 0
123 129 159 165 333 0
123 129 159 327 333 0
123 129 165 327 333 0
123 159 165 327 333 0
129 159 165 327 333 0
-65 -71 -125 -131 -161 0
-65 -71 -125 -131 -167 0
-65 -71 -125 -131 -329 0
-65 -71 -125 -131 -335 0
-65 -71 -125 -161 -167 0
-65 -71 -125 -161 -329 0
-65 -71 -125 -161 -335 0
-65 -71 -125 -167 -329 0
-65 -71 -125 -167 -335 0
-65 -71 -125 -329 -335 0
-65 -71 -131 -161 -167 0
-65 -71 -131 -161 -329 0
-65 -71 -131 -161 -335 0
-65 -71 -131 -167 -329 0
-65 -71 -131 -167 -335 0
-65 -71 -131 -329 -335 0
-65 -71 -161 -167 -329 0
-65 -71 -161 -167 -335 0
-65 -71 -161 -329 -335 0
-65 -71 -167 -329 -335 0
-65 -125 -131 -161 -167 0
-65 -125 -131 -161 -329 0
-65 -125 -131 -161 -335 0
-65 -125 -131 -167 -329 0
-65 -125 -131 -167 -335 0
-65 -125 -131 -329 -335 0
-65 -125 -161 -167 -329 0
-65 -125 -161 -167 -335 0
-65 -125 -161 -329 -335 0
-65 -125 -167 -329 -335 0
-65 -131 -161 -167 -329 0
-65 -131 -161 -167 -335 0
-65 -131 -161 -329 -335 0
-65 -131 -167 -329 -335 0
-65 -161 -167 -329 -335 0
-71 -125 -131 -161 -167 0
-71 -125 -131 -161 -329 0
-71 -125 -131 -161 -335 0
-71 -125 -131 -167 -329 0
-71 -125 -131 -167 -335 0
-71 -125 -131 -329 -335 0
-71 -125 -161 -167 -329 0
-71 -125 -161 -167 -335 0
-71 -125 -161 -329 -335 0
-71 -125 -167 -329 -335 0
-71 -131 -161 -167 -329 0
-71 -131 -161 -167 -335 0
-71 -131 -161 -329 -335 0
-71 -131 -167 -329 -335 0
-71 -161 -167 -329 -335 0
-125 -131 -161 -167 -329 0
-125 -131 -161 -167 -335 0
-125 -131 -161 -329 -335 0
-125 -131 -167 -329 -335 0
-125 -161 -167 -329 -335 0
-131 -161 -167 -329 -335 0
65 71 125 131 161 0
65 71 125 131 167 0
65 71 125 131 329 0
65 71 125 131 335 0
65 71 125 161 167 0
65 71 125 161 329 0
65 71 125 161 335 0
65 71 125 167 329 0
65 71 125 167 335 0
65 71 125 329 335 0
65 71 131 161 167 0
65 71 131 161 329 0
65 71 131 161 335 0
65 71 131 167 329 0
65 71 131 167 335 0
65 71 131 329 335 0
65 71 161 167 329 0
65 71 161 167 335 0
65 71 161 329 335 0
65 71 167 329 335 0
65 125 131 161 167 0
65 125 131 161 329 0
65 125 131 161 335 0
65 125 131 167 329 0
65 125 131 167 335 0
65 125 131 329 335 0
65 125 161 167 329 0
65 125 161 167 335 0
65 125 161 329 335 0
65 125 167 329 335 0
65 131 161 167 329 0
65 131 161 167 335 0
65 131 161 329 335 0
65 131 167 329 335 0
65 161 167 329 335 0
71 125 131 161 167 0
71 125 131 161 329 0
71 125 131 161 335 0
71 125 131 167 329 0
71 125 131 167 335 0
71 125 131 329 335 0
71 125 161 167 329 0
71 125 161 167 335 0
71 125 161 329 335 0
71 125 167 329 335 0
71 131 161 167 329 0
71 131 161 167 335 0
71 131 161 329 335 0
71 131 167 329 335 0
71 161 167 329 335 0
125 131 161 167 329 0
125 131 161 167 335 0
125 131 161 329 335 0
125 131 167 329 335 0
125 161 167 329 335 0
131 161 167 329 335 0
-521 -536 -671 0
-521 -536 -686 0
-521 -536 -761 0
-521 -536 -776 0
-521 -536 -1181 0
-521 -536 -1196 0
-521 -671 -686 0
-521 -671 -761 0
-521 -671 -776 0
-521 -671 -1181 0
-521 -671 -1196 0
-521 -686 -761 0
-521 -686 -776 0
-521 -686 -1181 0
-521 -686 -1196 0
-521 -761 -776 0
-521 -761 -1181 0
-521 -761 -1196 0
-521 -776 -1181 0
-521 -776 -1196 0
-521 -1181 -1196 0
-536 -671 -686 0
-536 -671 -761 0
-536 -671 -776 0
-536 -671 -1181 0
-536 -671 -1196 0
-536 -686 -761 0
-536 -686 -776 0
-536 -686 -1181 0
-536 -686 -1196 0
-536 -761 -776 0
-536 -761 -1181 0
-536 -761 -1196 0
-536 -776 -1181 0
-536 -776 -1196 0
-536 -1181 -1196 0
-671 -686 -761 0
-671 -686 -776 0
-671 -686 -1181 0
-671 -686 -1196 0
-671 -761 -776 0
-671 -761 -1181 0
-671 -761 -1196 0
-671 -776 -1181 0
-671 -776 -1196 0
-671 -1181 -1196 0
-686 -761 -776 0
-686 -761 -1181 0
-686 -761 -1196 0
-686 -776 -1181 0
-686 -776 -1196 0
-686 -1181 -1196 0
-761 -776 -1181 0
-761 -776 -1196 0
-761 -1181 -1196 0
-776 -1181 -1196 0
521 536 671 686 761 776 1181 0
521 536 671 686 761 776 1196 0
521 536 671 686 761 1181 1196 0
521 536 671 686 776 1181 1196 0
521 536 671 761 776 1181 1196 0
521 536 686 761 776 1181 1196 0
521 671 686 761 776 1181 1196 0
536 671 686 761 776 1181 1196 0
-39 -45 -99 -105 -147 0
-39 -45 -99 -105 -153 0
-39 -45 -99 -105 -351 0
-39 -45 -99 -105 -357 0
-39 -45 -99 -147 -153 0
-39 -45 -99 -147 -351 0
-39 -45 -99 -147 -357 0
-39 -45 -99 -153 -351 0
-39 -45 -99 -153 -357 0
-39 -45 -99 -351 -357 0
-39 -45 -105 -147 -153 0
-39 -45 -105 -147 -351 0
-39 -45 -105 -147 -357 0
-39 -45 -105 -153 -351 0
-39 -45 -105 -153 -357 0
-39 -45 -105 -351 -357 0
-39 -45 -147 -153 -351 0
-39 -45 -147 -153 -357 0
-39 -45 -147 -351 -357 0
-39 -45 -153 -351 -357 0
-39 -99 -105 -147 -153 0
-39 -99 -105 -147 -351 0
-39 -99 -105 -147 -357 0
-39 -99 -105 -153 -351 0
-39 -99 -105 -153 -357 0
-39 -99 -105 -351 -357 0
-39 -99 -147 -153 -351 0
-39 -99 -147 -153 -357 0
-39 -99 -147 -351 -357 0
-39 -99 -153 -351 -357 0
-39 -105 -147 -153 -351 0
-39 -105 -147 -153 -357 0
-39 -105 -147 -351 -357 0
-39 -105 -153 -351 -357 0
-39 -147 -153 -351 -357 0
-45 -99 -105 -147 -153 0
-45 -99 -105 -147 -351 0
-45 -99 -105 -147 -357 0
-45 -99 -105 -153 -351 0
-45 -99 -105 -153 -357 0
-45 -99 -105 -351 -357 0
-45 -99 -147 -153 -351 0
-45 -99 -147 -153 -357 0
-45 -99 -147 -351 -357 0
-45 -99 -153 -351 -357 0
-45 -105 -147 -153 -351 0
-45 -105 -147 -153 -357 0
-45 -105 -147 -351 -357 0
-45 -105 -153 -351 -357 0
-45 -147 -153 -351 -357 0
-99 -105 -147 -153 -351 0
-99 -105 -147 -153 -357 0
-99 -105 -147 -351 -357 0
-99 -105 -153 -351 -357 0
-99 -147 -153 -351 -357 0
-105 -147 -153 -351 -357 0
39 45 99 105 147 0
39 45 99 105 153 0
39 45 99 105 351 0
39 45 99 105 357 0
39 45 99 147 153 0
39 45 99 147 351 0
39 45 99 147 357 0
39 45 99 153 351 0
39 45 99 153 357 0
39 45 99 351 357 0
39 45 105 147 153 0
39 45 105 147 351 0
39 45 105 147 357 0
39 45 105 153 351 0
39 45 105 153 357 0
39 45 105 351 357 0
39 45 147 153 351 0
39 45 147 153 357 0
39 45 147 351 357 0
39 45 153 351 357 0
39 99 105 147 153 0
39 99 105 147 351 0
39 99 105 147 357 0
39 99 105 153 351 0
39 99 105 153 357 0
39 99 105 351 357 0
39 99 147 153 351 0
39 99 147 153 357 0
39 99 147 351 357 0
39 99 153 351 357 0
39 105 147 153 351 0
39 105 147 153 357 0
39 105 147 351 357 0
39 105 153 351 357 0
39 147 153 351 357 0
45 99 105 147 153 0
45 99 105 147 351 0
45 99 105 147 357 0
45 99 105 153 351 0
45 99 105 153 357 0
45 99 105 351 357 0
45 99 147 153 351 0
45 99 147 153 357 0
45 99 147 351 357 0
45 99 153 351 357 0
45 105 147 153 351 0
45 105 147 153 357 0
45 105 147 351 357 0
45 105 153 351 357 0
45 147 153 351 357 0
99 105 147 153 351 0
99 105 147 153 357 0
99 105 147 351 357 0
99 105 153 351 357 0
99 147 153 351 357 0
105 147 153 351 357 0
-41 -47 -101 -107 -149 0
-41 -47 -101 -107 -155 0
-41 -47 -101 -107 -353 0
-41 -47 -101 -107 -359 0
-41 -47 -101 -149 -155 0
-41 -47 -101 -149 -353 0
-41 -47 -101 -149 -359 0
-41 -47 -101 -155 -353 0
-41 -47 -101 -155 -359 0
-41 -47 -101 -353 -359 0
-41 -47 -107 -149 -155 0
-41 -47 -107 -149 -353 0
-41 -47 -107 -149 -359 0
-41 -47 -107 -155 -353 0
-41 -47 -107 -155 -359 0
-41 -47 -107 -353 -359 0
-41 -47 -149 -155 -353 0
-41 -47 -149 -155 -359 0
-41 -47 -149 -353 -359 0
-41 -47 -155 -353 -359 0
-41 -101 -107 -149 -155 0
-41 -101 -107 -149 -353 0
-41 -101 -107 -149 -359 0
-41 -101 -107 -155 -353 0
-41 -101 -107 -155 -359 0
-41 -101 -107 -353 -359 0
-41 -101 -149 -155 -353 0
-41 -101 -149 -155 -359 0
-41 -101 -149 -353 -359 0
-41 -101 -155 -353 -359 0
-41 -107 -149 -155 -353 0
-41 -107 -149 -155 -359 0
-41 -107 -149 -353 -359 0
-41 -107 -155 -353 -359 0
-41 -149 -155 -353 -359 0
-47 -101 -107 -149 -155 0
-47 -101 -107 -149 -353 0
-47 -101 -107 -149 -359 0
-47 -101 -107 -155 -353 0
-47 -101 -107 -155 -359 0
-47 -101 -107 -353 -359 0
-47 -101 -149 -155 -353 0
-47 -101 -149 -155 -359 0
-47 -101 -149 -353 -359 0
-47 -101 -155 -353 -359 0
-47 -107 -149 -155 -353 0
-47 -107 -149 -155 -359 0
-47 -107 -149 -353 -359 0
-47 -107 -155 -353 -359 0
-47 -149 -155 -353 -359 0
-101 -107 -149 -155 -353 0
-101 -107 -149 -155 -359 0
-101 -107 -149 -353 -359 0
-101 -107 -155 -353 -359 0
-101 -149 -155 -353 -359 0
-107 -149 -155 -353 -359 0
41 47 101 107 149 0
41 47 101 107 155 0
41 47 101 107 353 0
41 47 101 107 359 0
41 47 101 149 155 0
41 47 101 149 353 0
41 47 101 149 359 0
41 47 101 155 353 0
41 47 101 155 359 0
41 47 101 353 359 0
41 47 107 149 155 0
41 47 107 149 353 0
41 47 107 149 359 0
41 47 107 155 353 0
41 47 107 155 359 0
41 47 107 353 359 0
41 47 149 155 353 0
41 47 149 155 359 0
41 47 149 353 359 0
41 47 155 353 359 0
41 101 107 149 155 0
41 101 107 149 353 0
41 101 107 149 359 0
41 101 107 155 353 0
41 101 107 155 359 0
41 101 107 353 359 0
41 101 149 155 353 0
41 101 149 155 359 0
41 101 149 353 359 0
41 101 155 353 359 0
41 107 149 155 353 0
41 107 149 155 359 0
41 107 149 353 359 0
41 107 155 353 359 0
41 149 155 353 359 0
47 101 107 149 155 0
47 101 107 149 353 0
47 101 107 149 359 0
47 101 107 155 353 0
47 101 107 155 359 0
47 101 107 353 359 0
47 101 149 155 353 0
47 101 149 155 359 0
47 101 149 353 359 0
47 101 155 353 359 0
47 107 149 155 353 0
47 107 149 155 359 0
47 107 149 353 359 0
47 107 155 353 359 0
47 149 155 353 359 0
101 107 149 155 353 0
101 107 149 155 359 0
101 107 149 353 359 0
101 107 155 353 359 0
101 149 155 353 359 0
107 149 155 353 359 0
-461 -476 -611 0
-461 -476 -626 0
-461 -476 -731 0
-461 -476 -746 0
-461 -476 -1241 0
-461 -476 -1256 0
-461 -611 -626 0
-461 -611 -731 0
-461 -611 -746 0
-461 -611 -1241 0
-461 -611 -1256 0
-461 -626 -731 0
-461 -626 -746 0
-461 -626 -1241 0
-461 -626 -1256 0
-461 -731 -746 0
-461 -731 -1241 0
-461 -731 -1256 0
-461 -746 -1241 0
-461 -746 -1256 0
-461 -1241 -1256 0
-476 -611 -626 0
-476 -611 -731 0
-476 -611 -746 0
-476 -611 -1241 0
-476 -611 -1256 0
-476 -626 -731 0
-476 -626 -746 0
-476 -626 -1241 0
-476 -626 -1256 0
-476 -731 -746 0
-476 -731 -1241 0
-476 -731 -1256 0
-476 -746 -1241 0
-476 -746 -1256 0
-476 -1241 -1256 0
-611 -626 -731 0
-611 -626 -746 0
-611 -626 -1241 0
-611 -626 -1256 0
-611 -731 -746 0
-611 -731 -1241 0
-611 -731 -1256 0
-611 -746 -1241 0
-611 -746 -1256 0
-611 -1241 -1256 0
-626 -731 -746 0
-626 -731 -1241 0
-626 -731 -1256 0
-626 -746 -1241 0
-626 -746 -1256 0
-626 -1241 -1256 0
-731 -746 -1241 0
-731 -746 -1256 0
-731 -1241 -1256 0
-746 -1241 -1256 0
461 476 611 626 731 746 1241 0
461 476 611 626 731 746 1256 0
461 476 611 626 731 1241 1256 0
461 476 611 626 746 1241 1256 0
461 476 611 731 746 1241 1256 0
461 476 626 731 746 1241 1256 0
461 611 626 731 746 1241 1256 0
476 611 626 731 746 1241 1256 0
-51 -57 -135 -141 -183 0
-51 -57 -135 -141 -189 0
-51 -57 -135 -141 -303 0
-51 -57 -135 -141 -309 0
-51 -57 -135 -183 -189 0
-51 -57 -135 -183 -303 0
-51 -57 -135 -183 -309 0
-51 -57 -135 -189 -303 0
-51 -57 -135 -189 -309 0
-51 -57 -135 -303 -309 0
-51 -57 -141 -183 -189 0
-51 -57 -141 -183 -303 0
-51 -57 -141 -183 -309 0
-51 -57 -141 -189 -303 0
-51 -57 -141 -189 -309 0
-51 -57 -141 -303 -309 0
-51 -57 -183 -189 -303 0
-51 -57 -183 -189 -309 0
-51 -57 -183 -303 -309 0
-51 -57 -189 -303 -309 0
-51 -135 -141 -183 -189 0
-51 -135 -141 -183 -303 0
-51 -135 -141 -183 -309 0
-51 -135 -141 -189 -303 0
-51 -135 -141 -189 -309 0
-51 -135 -141 -303 -309 0
-51 -135 -183 -189 -303 0
-51 -135 -183 -189 -309 0
-51 -135 -183 -303 -309 0
-51 -135 -189 -303 -309 0
-51 -141 -183 -189 -303 0
-51 -141 -183 -189 -309 0
-51 -141 -183 -303 -309 0
-51 -141 -189 -303 -309 0
-51 -183 -189 -303 -309 0
-57 -135 -141 -183 -189 0
-57 -135 -141 -183 -303 0
-57 -135 -141 -183 -309 0
-57 -135 -141 -189 -303 0
-57 -135 -141 -189 -309 0
-57 -135 -141 -303 -309 0
-57 -135 -183 -189 -303 0
-57 -135 -183 -189 -309 0
-57 -135 -183 -303 -309 0
-57 -135 -189 -303 -309 0
-57 -141 -183 -189 -303 0
-57 -141 -183 -189 -309 0
-57 -141 -183 -303 -309 0
-57 -141 -189 -303 -309 0
-57 -183 -189 -303 -309 0
-135 -141 -183 -189 -303 0
-135 -141 -183 -189 -309 0
-135 -141 -183 -303 -309 0
-135 -141 -189 -303 -309 0
-135 -183 -189 -303 -309 0
-141 -183 -189 -303 -309 0
51 57 135 141 183 0
51 57 135 141 189 0
51 57 135 141 303 0
51 57 135 141 309 0
51 57 135 183 189 0
51 57 135 183 303 0
51 57 135 183 309 0
51 57 135 189 303 0
51 57 135 189 309 0
51 57 135 303 309 0
51 57 141 183 189 0
51 57 141 183 303 0
51 57 141 183 309 0
51 57 141 189 303 0
51 57 141 189 309 0
51 57 141 303 309 0
51 57 183 189 303 0
51 57 183 189 309 0
51 57 183 303 309 0
51 57 189 303 309 0
51 135 141 183 189 0
51 135 141 183 303 0
51 135 141 183 309 0
51 135 141 189 303 0
51 135 141 189 309 0
51 135 141 303 309 0
51 135 183 189 303 0
51 135 183 189 309 0
51 135 183 303 309 0
51 135 189 303 309 0
51 141 183 189 303 0
51 141 183 189 309 0
51 141 183 303 309 0
51 141 189 303 309 0
51 183 189 303 309 0
57 135 141 183 189 0
57 135 141 183 303 0
57 135 141 183 309 0
57 135 141 189 303 0
57 135 141 189 309 0
57 135 141 303 309 0
57 135 183 189 303 0
57 135 183 189 309 0
57 135 183 303 309 0
57 135 189 303 309 0
57 141 183 189 303 0
57 141 183 189 309 0
57 141 183 303 309 0
57 141 189 303 309 0
57 183 189 303 309 0
135 141 183 189 303 0
135 141 183 189 309 0
135 141 183 303 309 0
135 141 189 303 309 0
135 183 189 303 309 0
141 183 189 303 309 0
-53 -59 -137 -143 -185 0
-53 -59 -137 -143 -191 0
-53 -59 -137 -143 -305 0
-53 -59 -137 -143 -311 0
-53 -59 -137 -185 -191 0
-53 -59 -137 -185 -305 0
-53 -59 -137 -185 -311 0
-53 -59 -137 -191 -305 0
-53 -59 -137 -191 -311 0
-53 -59 -137 -305 -311 0
-53 -59 -143 -185 -191 0
-53 -59 -143 -185 -305 0
-53 -59 -143 -185 -311 0
-53 -59 -143 -191 -305 0
-53 -59 -143 -191 -311 0
-53 -59 -143 -305 -311 0
-53 -59 -185 -191 -305 0
-53 -59 -185 -191 -311 0
-53 -59 -185 -305 -311 0
-53 -59 -191 -305 -311 0
-53 -137 -143 -185 -191 0
-53 -137 -143 -185 -305 0
-53 -137 -143 -185 -311 0
-53 -137 -143 -191 -305 0
-53 -137 -143 -191 -311 0
-53 -137 -143 -305 -311 0
-53 -137 -185 -191 -305 0
-53 -137 -185 -191 -311 0
-53 -137 -185 -305 -311 0
-53 -137 -191 -305 -311 0
-53 -143 -185 -191 -305 0
-53 -143 -185 -191 -311 0
-53 -143 -185 -305 -311 0
-53 -143 -191 -305 -311 0
-53 -185 -191 -305 -311 0
-59 -137 -143 -185 -191 0
-59 -137 -143 -185 -305 0
-59 -137 -143 -185 -311 0
-59 -137 -143 -191 -305 0
-59 -137 -143 -191 -311 0
-59 -137 -143 -305 -311 0
-59 -137 -185 -191 -305 0
-59 -137 -185 -191 -311 0
-59 -137 -185 -305 -311 0
-59 -137 -191 -305 -311 0
-59 -143 -185 -191 -305 0
-59 -143 -185 -191 -311 0
-59 -143 -185 -305 -311 0
-59 -143 -191 -305 -311 0
-59 -185 -191 -305 -311 0
-137 -143 -185 -191 -305 0
-137 -143 -185 -191 -311 0
-137 -143 -185 -305 -311 0
-137 -143 -191 -305 -311 0
-137 -185 -191 -305 -311 0
-143 -185 -191 -305 -311 0
53 59 137 143 185 0
53 59 137 143 191 0
53 59 137 143 305 0
53 59 137 143 311 0
53 59 137 185 191 0
53 59 137 185 305 0
53 59 137 185 311 0
53 59 137 191 305 0
53 59 137 191 311 0
53 59 137 305 311 0
53 59 143 185 191 0
53 59 143 185 305 0
53 59 143 185 311 0
53 59 143 191 305 0
53 59 143 191 311 0
53 59 143 305 311 0
53 59 185 191 305 0
53 59 185 191 311 0
53 59 185 305 311 0
53 59 191 305 311 0
53 137 143 185 191 0
53 137 143 185 305 0
53 137 143 185 311 0
53 137 143 191 305 0
53 137 143 191 311 0
53 137 143 305 311 0
53 137 185 191 305 0
53 137 185 191 311 0
53 137 185 305 311 0
53 137 191 305 311 0
53 143 185 191 305 0
53 143 185 191 311 0
53 143 185 305 311 0
53 143 191 305 311 0
53 185 191 305 311 0
59 137 143 185 191 0
59 137 143 185 305 0
59 137 143 185 311 0
59 137 143 191 305 0
59 137 143 191 311 0
59 137 143 305 311 0
59 137 185 191 305 0
59 137 185 191 311 0
59 137 185 305 311 0
59 137 191 305 311 0
59 143 185 191 305 0
59 143 185 191 311 0
59 143 185 305 311 0
59 143 191 305 311 0
59 185 191 305 311 0
137 143 185 191 305 0
137 143 185 191 311 0
137 143 185 305 311 0
137 143 191 305 311 0
137 185 191 305 311 0
143 185 191 305 311 0
-491 -506 -701 0
-491 -506 -716 0
-491 -506 -821 0
-491 -506 -836 0
-491 -506 -1121 0
-491 -506 -1136 0
-491 -701 -716 0
-491 -701 -821 0
-491 -701 -836 0
-491 -701 -1121 0
-491 -701 -1136 0
-491 -716 -821 0
-491 -716 -836 0
-491 -716 -1121 0
-491 -716 -1136 0
-491 -821 -836 0
-491 -821 -1121 0
-491 -821 -1136 0
-491 -836 -1121 0
-491 -836 -1136 0
-491 -1121 -1136 0
-506 -701 -716 0
-506 -701 -821 0
-506 -701 -836 0
-506 -701 -1121 0
-506 -701 -1136 0
-506 -716 -821 0
-506 -716 -836 0
-506 -716 -1121 0
-506 -716 -1136 0
-506 -821 -836 0
-506 -821 -1121 0
-506 -821 -1136 0
-506 -836 -1121 0
-506 -836 -1136 0
-506 -1121 -1136 0
-701 -716 -821 0
-701 -716 -836 0
-701 -716 -1121 0
-701 -716 -1136 0
-701 -821 -836 0
-701 -821 -1121 0
-701 -821 -1136 0
-701 -836 -1121 0
-701 -836 -1136 0
-701 -1121 -1136 0
-716 -821 -836 0
-716 -821 -1121 0
-716 -821 -1136 0
-716 -836 -1121 0
-716 -836 -1136 0
-716 -1121 -1136 0
-821 -836 -1121 0
-821 -836 -1136 0
-821 -1121 -1136 0
-836 -1121 -1136 0
491 506 701 716 821 836 1121 0
491 506 701 716 821 836 1136 0
491 506 701 716 821 1121 1136 0
491 506 701 716 836 1121 1136 0
491 506 701 821 836 1121 1136 0
491 506 716 821 836 1121 1136 0
491 701 716 821 836 1121 1136 0
506 701 716 821 836 1121 1136 0
-219 -225 -279 0
-219 -225 -285 0
-219 -279 -285 0
-225 -279 -285 0
219 225 279 0
219 225 285 0
219 279 285 0
225 279 285 0
-221 -227 -281 0
-221 -227 -287 0
-221 -281 -287 0
-227 -281 -287 0
221 227 281 0
221 227 287 0
221 281 287 0
227 281 287 0
-911 -926 0
-911 -1061 0
-911 -1076 0
-926 -1061 0
-926 -1076 0
-1061 -1076 0
911 926 1061 1076 0
-15 -21 -75 -81 -171 0
-15 -21 -75 -81 -177 0
-15 -21 -75 -81 -339 0
-15 -21 -75 -81 -345 0
-15 -21 -75 -171 -177 0
-15 -21 -75 -171 -339 0
-15 -21 -75 -171 -345 0
-15 -21 -75 -177 -339 0
-15 -21 -75 -177 -345 0
-15 -21 -75 -339 -345 0
-15 -21 -81 -171 -177 0
-15 -21 -81 -171 -339 0
-15 -21 -81 -171 -345 0
-15 -21 -81 -177 -339 0
-15 -21 -81 -177 -345 0
-15 -21 -81 -339 -345 0
-15 -21 -171 -177 -339 0
-15 -21 -171 -177 -345 0
-15 -21 -171 -339 -345 0
-15 -21 -177 -339 -345 0
-15 -75 -81 -171 -177 0
-15 -75 -81 -171 -339 0
-15 -75 -81 -171 -345 0
-15 -75 -81 -177 -339 0
-15 -75 -81 -177 -345 0
-15 -75 -81 -339 -345 0
-15 -75 -171 -177 -339 0
-15 -75 -171 -177 -345 0
-15 -75 -171 -339 -345 0
-15 -75 -177 -339 -345 0
-15 -81 -171 -177 -339 0
-15 -81 -171 -177 -345 0
-15 -81 -171 -339 -345 0
-15 -81 -177 -339 -345 0
-15 -171 -177 -339 -345 0
-21 -75 -81 -171 -177 0
-21 -75 -81 -171 -339 0
-21 -75 -81 -171 -345 0
-21 -75 -81 -177 -339 0
-21 -75 -81 -177 -345 0
-21 -75 -81 -339 -345 0
-21 -75 -171 -177 -339 0
-21 -75 -171 -177 -345 0
-21 -75 -171 -339 -345 0
-21 -75 -177 -339 -345 0
-21 -81 -171 -177 -339 0
-21 -81 -171 -177 -345 0
-21 -81 -171 -339 -345 0
-21 -81 -177 -339 -345 0
-21 -171 -177 -339 -345 0
-75 -81 -171 -177 -339 0
-75 -81 -171 -177 -345 0
-75 -81 -171 -339 -345 0
-75 -81 -177 -339 -345 0
-75 -171 -177 -339 -345 0
-81 -171 -177 -339 -345 0
15 21 75 81 171 0
15 21 75 81 177 0
15 21 75 81 339 0
15 21 75 81 345 0
15 21 75 171 177 0
15 21 75 171 339 0
15 21 75 171 345 0
15 21 75 177 339 0
15 21 75 177 345 0
15 21 75 339 345 0
15 21 81 171 177 0
15 21 81 171 339 0
15 21 81 171 345 0
15 21 81 177 339 0
15 21 81 177 345 0
15 21 81 339 345 0
15 21 171 177 339 0
15 21 171 177 345 0
15 21 171 339 345 0
15 21 177 339 345 0
15 75 81 171 177 0
15 75 81 171 339 0
15 75 81 171 345 0
15 75 81 177 339 0
15 75 81 177 345 0
15 75 81 339 345 0
15 75 171 177 339 0
15 75 171 177 345 0
15 75 171 339 345 0
15 75 177 339 345 0
15 81 171 177 339 0
15 81 171 177 345 0
15 81 171 339 345 0
15 81 177 339 345 0
15 171 177 339 345 0
21 75 81 171 177 0
21 75 81 171 339 0
21 75 81 171 345 0
21 75 81 177 339 0
21 75 81 177 345 0
21 75 81 339 345 0
21 75 171 177 339 0
21 75 171 177 345 0
21 75 171 339 345 0
21 75 177 339 345 0
21 81 171 177 339 0
21 81 171 177 345 0
21 81 171 339 345 0
21 81 177 339 345 0
21 171 177 339 345 0
75 81 171 177 339 0
75 81 171 177 345 0
75 81 171 339 345 0
75 81 177 339 345 0
75 171 177 339 345 0
81 171 177 339 345 0
-17 -23 -77 -83 -173 0
-17 -23 -77 -83 -179 0
-17 -23 -77 -83 -341 0
-17 -23 -77 -83 -347 0
-17 -23 -77 -173 -179 0
-17 -23 -77 -173 -341 0
-17 -23 -77 -173 -347 0
-17 -23 -77 -179 -341 0
-17 -23 -77 -179 -347 0
-17 -23 -77 -341 -347 0
-17 -23 -83 -173 -179 0
-17 -23 -83 -173 -341 0
-17 -23 -83 -173 -347 0
-17 -23 -83 -179 -341 0
-17 -23 -83 -179 -347 0
-17 -23 -83 -341 -347 0
-17 -23 -173 -179 -341 0
-17 -23 -173 -179 -347 0
-17 -23 -173 -341 -347 0
-17 -23 -179 -341 -347 0
-17 -77 -83 -173 -179 0
-17 -77 -83 -173 -341 0
-17 -77 -83 -173 -347 0
-17 -77 -83 -179 -341 0
-17 -77 -83 -179 -347 0
-17 -77 -83 -341 -347 0
-17 -77 -173 -179 -341 0
-17 -77 -173 -179 -347 0
-17 -77 -173 -341 -347 0
-17 -77 -179 -341 -347 0
-17 -83 -173 -179 -341 0
-17 -83 -173 -179 -347 0
-17 -83 -173 -341 -347 0
-17 -83 -179 -341 -347 0
-17 -173 -179 -341 -347 0
-23 -77 -83 -173 -179 0
-23 -77 -83 -173 -341 0
-23 -77 -83 -173 -347 0
-23 -77 -83 -179 -341 0
-23 -77 -83 -179 -347 0
-23 -77 -83 -341 -347 0
-23 -77 -173 -179 -341 0
-23 -77 -173 -179 -347 0
-23 -77 -173 -341 -347 0
-23 -77 -179 -341 -347 0
-23 -83 -173 -179 -341 0
-23 -83 -173 -179 -347 0
-23 -83 -173 -341 -347 0
-23 -83 -179 -341 -347 0
-23 -173 -179 -341 -347 0
-77 -83 -173 -179 -341 0
-77 -83 -173 -179 -347 0
-77 -83 -173 -341 -347 0
-77 -83 -179 -341 -347 0
-77 -173 -179 -341 -347 0
-83 -173 -179 -341 -347 0
17 23 77 83 173 0
17 23 77 83 179 0
17 23 77 83 341 0
17 23 77 83 347 0
17 23 77 173 179 0
17 23 77 173 341 0
17 23 77 173 347 0
17 23 77 179 341 0
17 23 77 179 347 0
17 23 77 341 347 0
17 23 83 173 179 0
17 23 83 173 341 0
17 23 83 173 347 0
17 23 83 179 341 0
17 23 83 179 347 0
17 23 83 341 347 0
17 23 173 179 341 0
17 23 173 179 347 0
17 23 173 341 347 0
17 23 179 341 347 0
17 77 83 173 179 0
17 77 83 173 341 0
17 77 83 173 347 0
17 77 83 179 341 0
17 77 83 179 347 0
17 77 83 341 347 0
17 77 173 179 341 0
17 77 173 179 347 0
17 77 173 341 347 0
17 77 179 341 347 0
17 83 173 179 341 0
17 83 173 179 347 0
17 83 173 341 347 0
17 83 179 341 347 0
17 173 179 341 347 0
23 77 83 173 179 0
23 77 83 173 341 0
23 77 83 173 347 0
23 77 83 179 341 0
23 77 83 179 347 0
23 77 83 341 347 0
23 77 173 179 341 0
23 77 173 179 347 0
23 77 173 341 347 0
23 77 179 341 347 0
23 83 173 179 341 0
23 83 173 179 347 0
23 83 173 341 347 0
23 83 179 341 347 0
23 173 179 341 347 0
77 83 173 179 341 0
77 83 173 179 347 0
77 83 173 341 347 0
77 83 179 341 347 0
77 173 179 341 347 0
83 173 179 341 347 0
-401 -416 -551 0
-401 -416 -566 0
-401 -416 -791 0
-401 -416 -806 0
-401 -416 -1211 0
-401 -416 -1226 0
-401 -551 -566 0
-401 -551 -791 0
-401 -551 -806 0
-401 -551 -1211 0
-401 -551 -1226 0
-401 -566 -791 0
-401 -566 -806 0
-401 -566 -1211 0
-401 -566 -1226 0
-401 -791 -806 0
-401 -791 -1211 0
-401 -791 -1226 0
-401 -806 -1211 0
-401 -806 -1226 0
-401 -1211 -1226 0
-416 -551 -566 0
-416 -551 -791 0
-416 -551 -806 0
-416 -551 -1211 0
-416 -551 -1226 0
-416 -566 -791 0
-416 -566 -806 0
-416 -566 -1211 0
-416 -566 -1226 0
-416 -791 -806 0
-416 -791 -1211 0
-416 -791 -1226 0
-416 -806 -1211 0
-416 -806 -1226 0
-416 -1211 -1226 0
-551 -566 -791 0
-551 -566 -806 0
-551 -566 -1211 0
-551 -566 -1226 0
-551 -791 -806 0
-551 -791 -1211 0
-551 -791 -1226 0
-551 -806 -1211 0
-551 -806 -1226 0
-551 -1211 -1226 0
-566 -791 -806 0
-566 -791 -1211 0
-566 -791 -1226 0
-566 -806 -1211 0
-566 -806 -1226 0
-566 -1211 -1226 0
-791 -806 -1211 0
-791 -806 -1226 0
-791 -1211 -1226 0
-806 -1211 -1226 0
401 416 551 566 791 806 1211 0
401 416 551 566 791 806 1226 0
401 416 551 566 791 1211 1226 0
401 416 551 566 806 1211 1226 0
401 416 551 791 806 1211 1226 0
401 416 566 791 806 1211 1226 0
401 551 566 791 806 1211 1226 0
416 551 566 791 806 1211 1226 0
-27 -33 -111 -117 -207 0
-27 -33 -111 -117 -213 0
-27 -33 -111 -117 -291 0
-27 -33 -111 -117 -297 0
-27 -33 -111 -207 -213 0
-27 -33 -111 -207 -291 0
-27 -33 -111 -207 -297 0
-27 -33 -111 -213 -291 0
-27 -33 -111 -213 -297 0
-27 -33 -111 -291 -297 0
-27 -33 -117 -207 -213 0
-27 -33 -117 -207 -291 0
-27 -33 -117 -207 -297 0
-27 -33 -117 -213 -291 0
-27 -33 -117 -213 -297 0
-27 -33 -117 -291 -297 0
-27 -33 -207 -213 -291 0
-27 -33 -207 -213 -297 0
-27 -33 -207 -291 -297 0
-27 -33 -213 -291 -297 0
-27 -111 -117 -207 -213 0
-27 -111 -117 -207 -291 0
-27 -111 -117 -207 -297 0
-27 -111 -117 -213 -291 0
-27 -111 -117 -213 -297 0
-27 -111 -117 -291 -297 0
-27 -111 -207 -213 -291 0
-27 -111 -207 -213 -297 0
-27 -111 -207 -291 -297 0
-27 -111 -213 -291 -297 0
-27 -117 -207 -213 -291 0
-27 -117 -207 -213 -297 0
-27 -117 -207 -291 -297 0
-27 -117 -213 -291 -297 0
-27 -207 -213 -291 -297 0
-33 -111 -117 -207 -213 0
-33 -111 -117 -207 -291 0
-33 -111 -117 -207 -297 0
-33 -111 -117 -213 -291 0
-33 -111 -117 -213 -297 0
-33 -111 -117 -291 -297 0
-33 -111 -207 -213 -291 0
-33 -111 -207 -213 -297 0
-33 -111 -207 -291 -297 0
-33 -111 -213 -291 -297 0
-33 -117 -207 -213 -291 0
-33 -117 -207 -213 -297 0
-33 -117 -207 -291 -297 0
-33 -117 -213 -291 -297 0
-33 -207 -213 -291 -297 0
-111 -117 -207 -213 -291 0
-111 -117 -207 -213 -297 0
-111 -117 -207 -291 -297 0
-111 -117 -213 -291 -297 0
-111 -207 -213 -291 -297 0
-117 -207 -213 -291 -297 0
27 33 111 117 207 0
27 33 111 117 213 0
27 33 111 117 291 0
27 33 111 117 297 0
27 33 111 207 213 0
27 33 111 207 291 0
27 33 111 207 297 0
27 33 111 213 291 0
27 33 111 213 297 0
27 33 111 291 297 0
27 33 117 207 213 0
27 33 117 207 291 0
27 33 117 207 297 0
27 33 117 213 291 0
27 33 117 213 297 0
27 33 117 291 297 0
27 33 207 213 291 0
27 33 207 213 297 0
27 33 207 291 297 0
27 33 213 291 297 0
27 111 117 207 213 0
27 111 117 207 291 0
27 111 117 207 297 0
27 111 117 213 291 0
27 111 117 213 297 0
27 111 117 291 297 0
27 111 207 213 291 0
27 111 207 213 297 0
27 111 207 291 297 0
27 111 213 291 297 0
27 117 207 213 291 0
27 117 207 213 297 0
27 117 207 291 297 0
27 117 213 291 297 0
27 207 213 291 297 0
33 111 117 207 213 0
33 111 117 207 291 0
33 111 117 207 297 0
33 111 117 213 291 0
33 111 117 213 297 0
33 111 117 291 297 0
33 111 207 213 291 0
33 111 207 213 297 0
33 111 207 291 297 0
33 111 213 291 297 0
33 117 207 213 291 0
33 117 207 213 297 0
33 117 207 291 297 0
33 117 213 291 297 0
33 207 213 291 297 0
111 117 207 213 291 0
111 117 207 213 297 0
111 117 207 291 297 0
111 117 213 291 297 0
111 207 213 291 297 0
117 207 213 291 297 0
-29 -35 -113 -119 -209 0
-29 -35 -113 -119 -215 0
-29 -35 -113 -119 -293 0
-29 -35 -113 -119 -299 0
-29 -35 -113 -209 -215 0
-29 -35 -113 -209 -293 0
-29 -35 -113 -209 -299 0
-29 -35 -113 -215 -293 0
-29 -35 -113 -215 -299 0
-29 -35 -113 -293 -299 0
-29 -35 -119 -209 -215 0
-29 -35 -119 -209 -293 0
-29 -35 -119 -209 -299 0
-29 -35 -119 -215 -293 0
-29 -35 -119 -215 -299 0
-29 -35 -119 -293 -299 0
-29 -35 -209 -215 -293 0
-29 -35 -209 -215 -299 0
-29 -35 -209 -293 -299 0
-29 -35 -215 -293 -299 0
-29 -113 -119 -209 -215 0
-29 -113 -119 -209 -293 0
-29 -113 -119 -209 -299 0
-29 -113 -119 -215 -293 0
-29 -113 -119 -215 -299 0
-29 -113 -119 -293 -299 0
-29 -113 -209 -215 -293 0
-29 -113 -209 -215 -299 0
-29 -113 -209 -293 -299 0
-29 -113 -215 -293 -299 0
-29 -119 -209 -215 -293 0
-29 -119 -209 -215 -299 0
-29 -119 -209 -293 -299 0
-29 -119 -215 -293 -299 0
-29 -209 -215 -293 -299 0
-35 -113 -119 -209 -215 0
-35 -113 -119 -209 -293 0
-35 -113 -119 -209 -299 0
-35 -113 -119 -215 -293 0
-35 -113 -119 -215 -299 0
-35 -113 -119 -293 -299 0
-35 -113 -209 -215 -293 0
-35 -113 -209 -215 -299 0
-35 -113 -209 -293 -299 0
-35 -113 -215 -293 -299 0
-35 -119 -209 -215 -293 0
-35 -119 -209 -215 -299 0
-35 -119 -209 -293 -299 0
-35 -119 -215 -293 -299 0
-35 -209 -215 -293 -299 0
-113 -119 -209 -215 -293 0
-113 -119 -209 -215 -299 0
-113 -119 -209 -293 -299 0
-113 -119 -215 -293 -299 0
-113 -209 -215 -293 -299 0
-119 -209 -215 -293 -299 0
29 35 113 119 209 0
29 35 113 119 215 0
29 35 113 119 293 0
29 35 113 119 299 0
29 35 113 209 215 0
29 35 113 209 293 0
29 35 113 209 299 0
29 35 113 215 293 0
29 35 113 215 299 0
29 35 113 293 299 0
29 35 119 209 215 0
29 35 119 209 293 0
29 35 119 209 299 0
29 35 119 215 293 0
29 35 119 215 299 0
29 35 119 293 299 0
29 35 209 215 293 0
29 35 209 215 299 0
29 35 209 293 299 0
29 35 215 293 299 0
29 113 119 209 215 0
29 113 119 209 293 0
29 113 119 209 299 0
29 113 119 215 293 0
29 113 119 215 299 0
29 113 119 293 299 0
29 113 209 215 293 0
29 113 209 215 299 0
29 113 209 293 299 0
29 113 215 293 299 0
29 119 209 215 293 0
29 119 209 215 299 0
29 119 209 293 299 0
29 119 215 293 299 0
29 209 215 293 299 0
35 113 119 209 215 0
35 113 119 209 293 0
35 113 119 209 299 0
35 113 119 215 293 0
35 113 119 215 299 0
35 113 119 293 299 0
35 113 209 215 293 0
35 113 209 215 299 0
35 113 209 293 299 0
35 113 215 293 299 0
35 119 209 215 293 0
35 119 209 215 299 0
35 119 209 293 299 0
35 119 215 293 299 0
35 209 215 293 299 0
113 119 209 215 293 0
113 119 209 215 299 0
113 119 209 293 299 0
113 119 215 293 299 0
113 209 215 293 299 0
119 209 215 293 299 0
-431 -446 -641 0
-431 -446 -656 0
-431 -446 -881 0
-431 -446 -896 0
-431 -446 -1091 0
-431 -446 -1106 0
-431 -641 -656 0
-431 -641 -881 0
-431 -641 -896 0
-431 -641 -1091 0
-431 -641 -1106 0
-431 -656 -881 0
-431 -656 -896 0
-431 -656 -1091 0
-431 -656 -1106 0
-431 -881 -896 0
-431 -881 -1091 0
-431 -881 -1106 0
-431 -896 -1091 0
-431 -896 -1106 0
-431 -1091 -1106 0
-446 -641 -656 0
-446 -641 -881 0
-446 -641 -896 0
-446 -641 -1091 0
-446 -641 -1106 0
-446 -656 -881 0
-446 -656 -896 0
-446 -656 -1091 0
-446 -656 -1106 0
-446 -881 -896 0
-446 -881 -1091 0
-446 -881 -1106 0
-446 -896 -1091 0
-446 -896 -1106 0
-446 -1091 -1106 0
-641 -656 -881 0
-641 -656 -896 0
-641 -656 -1091 0
-641 -656 -1106 0
-641 -881 -896 0
-641 -881 -1091 0
-641 -881 -1106 0
-641 -896 -1091 0
-641 -896 -1106 0
-641 -1091 -1106 0
-656 -881 -896 0
-656 -881 -1091 0
-656 -881 -1106 0
-656 -896 -1091 0
-656 -896 -1106 0
-656 -1091 -1106 0
-881 -896 -1091 0
-881 -896 -1106 0
-881 -1091 -1106 0
-896 -1091 -1106 0
431 446 641 656 881 896 1091 0
431 446 641 656 881 896 1106 0
431 446 641 656 881 1091 1106 0
431 446 641 656 896 1091 1106 0
431 446 641 881 896 1091 1106 0
431 446 656 881 896 1091 1106 0
431 641 656 881 896 1091 1106 0
446 641 656 881 896 1091 1106 0
-3 -9 -87 -93 -195 0
-3 -9 -87 -93 -201 0
-3 -9 -87 -93 -315 0
-3 -9 -87 -93 -321 0
-3 -9 -87 -195 -201 0
-3 -9 -87 -195 -315 0
-3 -9 -87 -195 -321 0
-3 -9 -87 -201 -315 0
-3 -9 -87 -201 -321 0
-3 -9 -87 -315 -321 0
-3 -9 -93 -195 -201 0
-3 -9 -93 -195 -315 0
-3 -9 -93 -195 -321 0
-3 -9 -93 -201 -315 0
-3 -9 -93 -201 -321 0
-3 -9 -93 -315 -321 0
-3 -9 -195 -201 -315 0
-3 -9 -195 -201 -321 0
-3 -9 -195 -315 -321 0
-3 -9 -201 -315 -321 0
-3 -87 -93 -195 -201 0
-3 -87 -93 -195 -315 0
-3 -87 -93 -195 -321 0
-3 -87 -93 -201 -315 0
-3 -87 -93 -201 -321 0
-3 -87 -93 -315 -321 0
-3 -87 -195 -201 -315 0
-3 -87 -195 -201 -321 0
-3 -87 -195 -315 -321 0
-3 -87 -201 -315 -321 0
-3 -93 -195 -201 -315 0
-3 -93 -195 -201 -321 0
-3 -93 -195 -315 -321 0
-3 -93 -201 -315 -321 0
-3 -195 -201 -315 -321 0
-9 -87 -93 -195 -201 0
-9 -87 -93 -195 -315 0
-9 -87 -93 -195 -321 0
-9 -87 -93 -201 -315 0
-9 -87 -93 -201 -321 0
-9 -87 -93 -315 -321 0
-9 -87 -195 -201 -315 0
-9 -87 -195 -201 -321 0
-9 -87 -195 -315 -321 0
-9 -87 -201 -315 -321 0
-9 -93 -195 -201 -315 0
-9 -93 -195 -201 -321 0
-9 -93 -195 -315 -321 0
-9 -93 -201 -315 -321 0
-9 -195 -201 -315 -321 0
-87 -93 -195 -201 -315 0
-87 -93 -195 -201 -321 0
-87 -93 -195 -315 -321 0
-87 -93 -201 -315 -321 0
-87 -195 -201 -315 -321 0
-93 -195 -201 -315 -321 0
3 9 87 93 195 0
3 9 87 93 201 0
3 9 87 93 315 0
3 9 87 93 321 0
3 9 87 195 201 0
3 9 87 195 315 0
3 9 87 195 321 0
3 9 87 201 315 0
3 9 87 201 321 0
3 9 87 315 321 0
3 9 93 195 201 0
3 9 93 195 315 0
3 9 93 195 321 0
3 9 93 201 315 0
3 9 93 201 321 0
3 9 93 315 321 0
3 9 195 201 315 0
3 9 195 201 321 0
3 9 195 315 321 0
3 9 201 315 321 0
3 87 93 195 201 0
3 87 93 195 315 0
3 87 93 195 321 0
3 87 93 201 315 0
3 87 93 201 321 0
3 87 93 315 321 0
3 87 195 201 315 0
3 87 195 201 321 0
3 87 195 315 321 0
3 87 201 315 321 0
3 93 195 201 315 0
3 93 195 201 321 0
3 93 195 315 321 0
3 93 201 315 321 0
3 195 201 315 321 0
9 87 93 195 201 0
9 87 93 195 315 0
9 87 93 195 321 0
9 87 93 201 315 0
9 87 93 201 321 0
9 87 93 315 321 0
9 87 195 201 315 0
9 87 195 201 321 0
9 87 195 315 321 0
9 87 201 315 321 0
9 93 195 201 315 0
9 93 195 201 321 0
9 93 195 315 321 0
9 93 201 315 321 0
9 195 201 315 321 0
87 93 195 201 315 0
87 93 195 201 321 0
87 93 195 315 321 0
87 93 201 315 321 0
87 195 201 315 321 0
93 195 201 315 321 0
-5 -11 -89 -95 -197 0
-5 -11 -89 -95 -203 0
-5 -11 -89 -95 -317 0
-5 -11 -89 -95 -323 0
-5 -11 -89 -197 -203 0
-5 -11 -89 -197 -317 0
-5 -11 -89 -197 -323 0
-5 -11 -89 -203 -317 0
-5 -11 -89 -203 -323 0
-5 -11 -89 -317 -323 0
-5 -11 -95 -197 -203 0
-5 -11 -95 -197 -317 0
-5 -11 -95 -197 -323 0
-5 -11 -95 -203 -317 0
-5 -11 -95 -203 -323 0
-5 -11 -95 -317 -323 0
-5 -11 -197 -203 -317 0
-5 -11 -197 -203 -323 0
-5 -11 -197 -317 -323 0
-5 -11 -203 -317 -323 0
-5 -89 -95 -197 -203 0
-5 -89 -95 -197 -317 0
-5 -89 -95 -197 -323 0
-5 -89 -95 -203 -317 0
-5 -89 -95 -203 -323 0
-5 -89 -95 -317 -323 0
-5 -89 -197 -203 -317 0
-5 -89 -197 -203 -323 0
-5 -89 -197 -317 -323 0
-5 -89 -203 -317 -323 0
-5 -95 -197 -203 -317 0
-5 -95 -197 -203 -323 0
-5 -95 -197 -317 -323 0
-5 -95 -203 -317 -323 0
-5 -197 -203 -317 -323 0
-11 -89 -95 -197 -203 0
-11 -89 -95 -197 -317 0
-11 -89 -95 -197 -323 0
-11 -89 -95 -203 -317 0
-11 -89 -95 -203 -323 0
-11 -89 -95 -317 -323 0
-11 -89 -197 -203 -317 0
-11 -89 -197 -203 -323 0
-11 -89 -197 -317 -323 0
-11 -89 -203 -317 -323 0
-11 -95 -197 -203 -317 0
-11 -95 -197 -203 -323 0
-11 -95 -197 -317 -323 0
-11 -95 -203 -317 -323 0
-11 -197 -203 -317 -323 0
-89 -95 -197 -203 -317 0
-89 -95 -197 -203 -323 0
-89 -95 -197 -317 -323 0
-89 -95 -203 -317 -323 0
-89 -197 -203 -317 -323 0
-95 -197 -203 -317 -323 0
5 11 89 95 197 0
5 11 89 95 203 0
5 11 89 95 317 0
5 11 89 95 323 0
5 11 89 197 203 0
5 11 89 197 317 0
5 11 89 197 323 0
5 11 89 203 317 0
5 11 89 203 323 0
5 11 89 317 323 0
5 11 95 197 203 0
5 11 95 197 317 0
5 11 95 197 323 0
5 11 95 203 317 0
5 11 95 203 323 0
5 11 95 317 323 0
5 11 197 203 317 0
5 11 197 203 323 0
5 11 197 317 323 0
5 11 203 317 323 0
5 89 95 197 203 0
5 89 95 197 317 0
5 89 95 197 323 0
5 89 95 203 317 0
5 89 95 203 323 0
5 89 95 317 323 0
5 89 197 203 317 0
5 89 197 203 323 0
5 89 197 317 323 0
5 89 203 317 323 0
5 95 197 203 317 0
5 95 197 203 323 0
5 95 197 317 323 0
5 95 203 317 323 0
5 197 203 317 323 0
11 89 95 197 203 0
11 89 95 197 317 0
11 89 95 197 323 0
11 89 95 203 317 0
11 89 95 203 323 0
11 89 95 317 323 0
11 89 197 203 317 0
11 89 197 203 323 0
11 89 197 317 323 0
11 89 203 317 323 0
11 95 197 203 317 0
11 95 197 203 323 0
11 95 197 317 323 0
11 95 203 317 323 0
11 197 203 317 323 0
89 95 197 203 317 0
89 95 197 203 323 0
89 95 197 317 323 0
89 95 203 317 323 0
89 197 203 317 323 0
95 197 203 317 323 0
-371 -386 -581 0
-371 -386 -596 0
-371 -386 -851 0
-371 -386 -866 0
-371 -386 -1151 0
-371 -386 -1166 0
-371 -581 -596 0
-371 -581 -851 0
-371 -581 -866 0
-371 -581 -1151 0
-371 -581 -1166 0
-371 -596 -851 0
-371 -596 -866 0
-371 -596 -1151 0
-371 -596 -1166 0
-371 -851 -866 0
-371 -851 -1151 0
-371 -851 -1166 0
-371 -866 -1151 0
-371 -866 -1166 0
-371 -1151 -1166 0
-386 -581 -596 0
-386 -581 -851 0
-386 -581 -866 0
-386 -581 -1151 0
-386 -581 -1166 0
-386 -596 -851 0
-386 -596 -866 0
-386 -596 -1151 0
-386 -596 -1166 0
-386 -851 -866 0
-386 -851 -1151 0
-386 -851 -1166 0
-386 -866 -1151 0
-386 -866 -1166 0
-386 -1151 -1166 0
-581 -596 -851 0
-581 -596 -866 0
-581 -596 -1151 0
-581 -596 -1166 0
-581 -851 -866 0
-581 -851 -1151 0
-581 -851 -1166 0
-581 -866 -1151 0
-581 -866 -1166 0
-581 -1151 -1166 0
-596 -851 -866 0
-596 -851 -1151 0
-596 -851 -1166 0
-596 -866 -1151 0
-596 -866 -1166 0
-596 -1151 -1166 0
-851 -866 -1151 0
-851 -866 -1166 0
-851 -1151 -1166 0
-866 -1151 -1166 0
371 386 581 596 851 866 1151 0
371 386 581 596 851 866 1166 0
371 386 581 596 851 1151 1166 0
371 386 581 596 866 1151 1166 0
371 386 581 851 866 1151 1166 0
371 386 596 851 866 1151 1166 0
371 581 596 851 866 1151 1166 0
386 581 596 851 866 1151 1166 0
-231 -237 -255 0
-231 -237 -261 0
-231 -255 -261 0
-237 -255 -261 0
231 237 255 0
231 237 261 0
231 255 261 0
237 255 261 0
-233 -239 -257 0
-233 -239 -263 0
-233 -257 -263 0
-239 -257 -263 0
233 239 257 0
233 239 263 0
233 257 263 0
239 257 263 0
-941 -956 0
-941 -1001 0
-941 -1016 0
-956 -1001 0
-956 -1016 0
-1001 -1016 0
941 956 1001 1016 0
-147 -153 -159 0
-147 -153 -165 0
-147 -159 -165 0
-153 -159 -165 0
147 153 159 0
147 153 165 0
147 159 165 0
153 159 165 0
-150 -156 -162 0
-150 -156 -168 0
-150 -162 -168 0
-156 -162 -168 0
150 156 162 0
150 156 168 0
150 162 168 0
156 162 168 0
-732 -747 0
-732 -762 0
-732 -777 0
-747 -762 0
-747 -777 0
-762 -777 0
732 747 762 777 0
-39 -45 -99 -105 -243 0
-39 -45 -99 -105 -249 0
-39 -45 -99 -105 -327 0
-39 -45 -99 -105 -333 0
-39 -45 -99 -243 -249 0
-39 -45 -99 -243 -327 0
-39 -45 -99 -243 -333 0
-39 -45 -99 -249 -327 0
-39 -45 -99 -249 -333 0
-39 -45 -99 -327 -333 0
-39 -45 -105 -243 -249 0
-39 -45 -105 -243 -327 0
-39 -45 -105 -243 -333 0
-39 -45 -105 -249 -327 0
-39 -45 -105 -249 -333 0
-39 -45 -105 -327 -333 0
-39 -45 -243 -249 -327 0
-39 -45 -243 -249 -333 0
-39 -45 -243 -327 -333 0
-39 -45 -249 -327 -333 0
-39 -99 -105 -243 -249 0
-39 -99 -105 -243 -327 0
-39 -99 -105 -243 -333 0
-39 -99 -105 -249 -327 0
-39 -99 -105 -249 -333 0
-39 -99 -105 -327 -333 0
-39 -99 -243 -249 -327 0
-39 -99 -243 -249 -333 0
-39 -99 -243 -327 -333 0
-39 -99 -249 -327 -333 0
-39 -105 -243 -249 -327 0
-39 -105 -243 -249 -333 0
-39 -105 -243 -327 -333 0
-39 -105 -249 -327 -333 0
-39 -243 -249 -327 -333 0
-45 -99 -105 -243 -249 0
-45 -99 -105 -243 -327 0
-45 -99 -105 -243 -333 0
-45 -99 -105 -249 -327 0
-45 -99 -105 -249 -333 0
-45 -99 -105 -327 -333 0
-45 -99 -243 -249 -327 0
-45 -99 -243 -249 -333 0
-45 -99 -243 -327 -333 0
-45 -99 -249 -327 -333 0
-45 -105 -243 -249 -327 0
-45 -105 -243 -249 -333 0
-45 -105 -243 -327 -333 0
-45 -105 -249 -327 -333 0
-45 -243 -249 -327 -333 0
-99 -105 -243 -249 -327 0
-99 -105 -243 -249 -333 0
-99 -105 -243 -327 -333 0
-99 -105 -249 -327 -333 0
-99 -243 -249 -327 -333 0
-105 -243 -249 -327 -333 0
39 45 99 105 243 0
39 45 99 105 249 0
39 45 99 105 327 0
39 45 99 105 333 0
39 45 99 243 249 0
39 45 99 243 327 0
39 45 99 243 333 0
39 45 99 249 327 0
39 45 99 249 333 0
39 45 99 327 333 0
39 45 105 243 249 0
39 45 105 243 327 0
39 45 105 243 333 0
39 45 105 249 327 0
39 45 105 249 333 0
39 45 105 327 333 0
39 45 243 249 327 0
39 45 243 249 333 0
39 45 243 327 333 0
39 45 249 327 333 0
39 99 105 243 249 0
39 99 105 243 327 0
39 99 105 243 333 0
39 99 105 249 327 0
39 99 105 249 333 0
39 99 105 327 333 0
39 99 243 249 327 0
39 99 243 249 333 0
39 99 243 327 333 0
39 99 249 327 333 0
39 105 243 249 327 0
39 105 243 249 333 0
39 105 243 327 333 0
39 105 249 327 333 0
39 243 249 327 333 0
45 99 105 243 249 0
45 99 105 243 327 0
45 99 105 243 333 0
45 99 105 249 327 0
45 99 105 249 333 0
45 99 105 327 333 0
45 99 243 249 327 0
45 99 243 249 333 0
45 99 243 327 333 0
45 99 249 327 333 0
45 105 243 249 327 0
45 105 243 249 333 0
45 105 243 327 333 0
45 105 249 327 333 0
45 243 249 327 333 0
99 105 243 249 327 0
99 105 243 249 333 0
99 105 243 327 333 0
99 105 249 327 333 0
99 243 249 327 333 0
105 243 249 327 333 0
-42 -48 -102 -108 -246 0
-42 -48 -102 -108 -252 0
-42 -48 -102 -108 -330 0
-42 -48 -102 -108 -336 0
-42 -48 -102 -246 -252 0
-42 -48 -102 -246 -330 0
-42 -48 -102 -246 -336 0
-42 -48 -102 -252 -330 0
-42 -48 -102 -252 -336 0
-42 -48 -102 -330 -336 0
-42 -48 -108 -246 -252 0
-42 -48 -108 -246 -330 0
-42 -48 -108 -246 -336 0
-42 -48 -108 -252 -330 0
-42 -48 -108 -252 -336 0
-42 -48 -108 -330 -336 0
-42 -48 -246 -252 -330 0
-42 -48 -246 -252 -336 0
-42 -48 -246 -330 -336 0
-42 -48 -252 -330 -336 0
-42 -102 -108 -246 -252 0
-42 -102 -108 -246 -330 0
-42 -102 -108 -246 -336 0
-42 -102 -108 -252 -330 0
-42 -102 -108 -252 -336 0
-42 -102 -108 -330 -336 0
-42 -102 -246 -252 -330 0
-42 -102 -246 -252 -336 0
-42 -102 -246 -330 -336 0
-42 -102 -252 -330 -336 0
-42 -108 -246 -252 -330 0
-42 -108 -246 -252 -336 0
-42 -108 -246 -330 -336 0
-42 -108 -252 -330 -336 0
-42 -246 -252 -330 -336 0
-48 -102 -108 -246 -252 0
-48 -102 -108 -246 -330 0
-48 -102 -108 -246 -336 0
-48 -102 -108 -252 -330 0
-48 -102 -108 -252 -336 0
-48 -102 -108 -330 -336 0
-48 -102 -246 -252 -330 0
-48 -102 -246 -252 -336 0
-48 -102 -246 -330 -336 0
-48 -102 -252 -330 -336 0
-48 -108 -246 -252 -330 0
-48 -108 -246 -252 -336 0
-48 -108 -246 -330 -336 0
-48 -108 -252 -330 -336 0
-48 -246 -252 -330 -336 0
-102 -108 -246 -252 -330 0
-102 -108 -246 -252 -336 0
-102 -108 -246 -330 -336 0
-102 -108 -252 -330 -336 0
-102 -246 -252 -330 -336 0
-108 -246 -252 -330 -336 0
42 48 102 108 246 0
42 48 102 108 252 0
42 48 102 108 330 0
42 48 102 108 336 0
42 48 102 246 252 0
42 48 102 246 330 0
42 48 102 246 336 0
42 48 102 252 330 0
42 48 102 252 336 0
42 48 102 330 336 0
42 48 108 246 252 0
42 48 108 246 330 0
42 48 108 246 336 0
42 48 108 252 330 0
42 48 108 252 336 0
42 48 108 330 336 0
42 48 246 252 330 0
42 48 246 252 336 0
42 48 246 330 336 0
42 48 252 330 336 0
42 102 108 246 252 0
42 102 108 246 330 0
42 102 108 246 336 0
42 102 108 252 330 0
42 102 108 252 336 0
42 102 108 330 336 0
42 102 246 252 330 0
42 102 246 252 336 0
42 102 246 330 336 0
42 102 252 330 336 0
42 108 246 252 330 0
42 108 246 252 336 0
42 108 246 330 336 0
42 108 252 330 336 0
42 246 252 330 336 0
48 102 108 246 252 0
48 102 108 246 330 0
48 102 108 246 336 0
48 102 108 252 330 0
48 102 108 252 336 0
48 102 108 330 336 0
48 102 246 252 330 0
48 102 246 252 336 0
48 102 246 330 336 0
48 102 252 330 336 0
48 108 246 252 330 0
48 108 246 252 336 0
48 108 246 330 336 0
48 108 252 330 336 0
48 246 252 330 336 0
102 108 246 252 330 0
102 108 246 252 336 0
102 108 246 330 336 0
102 108 252 330 336 0
102 246 252 330 336 0
108 246 252 330 336 0
-462 -477 -612 0
-462 -477 -627 0
-462 -477 -972 0
-462 -477 -987 0
-462 -477 -1182 0
-462 -477 -1197 0
-462 -612 -627 0
-462 -612 -972 0
-462 -612 -987 0
-462 -612 -1182 0
-462 -612 -1197 0
-462 -627 -972 0
-462 -627 -987 0
-462 -627 -1182 0
-462 -627 -1197 0
-462 -972 -987 0
-462 -972 -1182 0
-462 -972 -1197 0
-462 -987 -1182 0
-462 -987 -1197 0
-462 -1182 -1197 0
-477 -612 -627 0
-477 -612 -972 0
-477 -612 -987 0
-477 -612 -1182 0
-477 -612 -1197 0
-477 -627 -972 0
-477 -627 -987 0
-477 -627 -1182 0
-477 -627 -1197 0
-477 -972 -987 0
-477 -972 -1182 0
-477 -972 -1197 0
-477 -987 -1182 0
-477 -987 -1197 0
-477 -1182 -1197 0
-612 -627 -972 0
-612 -627 -987 0
-612 -627 -1182 0
-612 -627 -1197 0
-612 -972 -987 0
-612 -972 -1182 0
-612 -972 -1197 0
-612 -987 -1182 0
-612 -987 -1197 0
-612 -1182 -1197 0
-627 -972 -987 0
-627 -972 -1182 0
-627 -972 -1197 0
-627 -987 -1182 0
-627 -987 -1197 0
-627 -1182 -1197 0
-972 -987 -1182 0
-972 -987 -1197 0
-972 -1182 -1197 0
-987 -1182 -1197 0
462 477 612 627 972 987 1182 0
462 477 612 627 972 987 1197 0
462 477 612 627 972 1182 1197 0
462 477 612 627 987 1182 1197 0
462 477 612 972 987 1182 1197 0
462 477 627 972 987 1182 1197 0
462 612 627 972 987 1182 1197 0
477 612 627 972 987 1182 1197 0
-63 -69 -123 -129 -267 0
-63 -69 -123 -129 -273 0
-63 -69 -123 -129 -351 0
-63 -69 -123 -129 -357 0
-63 -69 -123 -267 -273 0
-63 -69 -123 -267 -351 0
-63 -69 -123 -267 -357 0
-63 -69 -123 -273 -351 0
-63 -69 -123 -273 -357 0
-63 -69 -123 -351 -357 0
-63 -69 -129 -267 -273 0
-63 -69 -129 -267 -351 0
-63 -69 -129 -267 -357 0
-63 -69 -129 -273 -351 0
-63 -69 -129 -273 -357 0
-63 -69 -129 -351 -357 0
-63 -69 -267 -273 -351 0
-63 -69 -267 -273 -357 0
-63 -69 -267 -351 -357 0
-63 -69 -273 -351 -357 0
-63 -123 -129 -267 -273 0
-63 -123 -129 -267 -351 0
-63 -123 -129 -267 -357 0
-63 -123 -129 -273 -351 0
-63 -123 -129 -273 -357 0
-63 -123 -129 -351 -357 0
-63 -123 -267 -273 -351 0
-63 -123 -267 -273 -357 0
-63 -123 -267 -351 -357 0
-63 -123 -273 -351 -357 0
-63 -129 -267 -273 -351 0
-63 -129 -267 -273 -357 0
-63 -129 -267 -351 -357 0
-63 -129 -273 -351 -357 0
-63 -267 -273 -351 -357 0
-69 -123 -129 -267 -273 0
-69 -123 -129 -267 -351 0
-69 -123 -129 -267 -357 0
-69 -123 -129 -273 -351 0
-69 -123 -129 -273 -357 0
-69 -123 -129 -351 -357 0
-69 -123 -267 -273 -351 0
-69 -123 -267 -273 -357 0
-69 -123 -267 -351 -357 0
-69 -123 -273 -351 -357 0
-69 -129 -267 -273 -351 0
-69 -129 -267 -273 -357 0
-69 -129 -267 -351 -357 0
-69 -129 -273 -351 -357 0
-69 -267 -273 -351 -357 0
-123 -129 -267 -273 -351 0
-123 -129 -267 -273 -357 0
-123 -129 -267 -351 -357 0
-123 -129 -273 -351 -357 0
-123 -267 -273 -351 -357 0
-129 -267 -273 -351 -357 0
63 69 123 129 267 0
63 69 123 129 273 0
63 69 123 129 351 0
63 69 123 129 357 0
63 69 123 267 273 0
63 69 123 267 351 0
63 69 123 267 357 0
63 69 123 273 351 0
63 69 123 273 357 0
63 69 123 351 357 0
63 69 129 267 273 0
63 69 129 267 351 0
63 69 129 267 357 0
63 69 129 273 351 0
63 69 129 273 357 0
63 69 129 351 357 0
63 69 267 273 351 0
63 69 267 273 357 0
63 69 267 351 357 0
63 69 273 351 357 0
63 123 129 267 273 0
63 123 129 267 351 0
63 123 129 267 357 0
63 123 129 273 351 0
63 123 129 273 357 0
63 123 129 351 357 0
63 123 267 273 351 0
63 123 267 273 357 0
63 123 267 351 357 0
63 123 273 351 357 0
63 129 267 273 351 0
63 129 267 273 357 0
63 129 267 351 357 0
63 129 273 351 357 0
63 267 273 351 357 0
69 123 129 267 273 0
69 123 129 267 351 0
69 123 129 267 357 0
69 123 129 273 351 0
69 123 129 273 357 0
69 123 129 351 357 0
69 123 267 273 351 0
69 123 267 273 357 0
69 123 267 351 357 0
69 123 273 351 357 0
69 129 267 273 351 0
69 129 267 273 357 0
69 129 267 351 357 0
69 129 273 351 357 0
69 267 273 351 357 0
123 129 267 273 351 0
123 129 267 273 357 0
123 129 267 351 357 0
123 129 273 351 357 0
123 267 273 351 357 0
129 267 273 351 357 0
-66 -72 -126 -132 -270 0
-66 -72 -126 -132 -276 0
-66 -72 -126 -132 -354 0
-66 -72 -126 -132 -360 0
-66 -72 -126 -270 -276 0
-66 -72 -126 -270 -354 0
-66 -72 -126 -270 -360 0
-66 -72 -126 -276 -354 0
-66 -72 -126 -276 -360 0
-66 -72 -126 -354 -360 0
-66 -72 -132 -270 -276 0
-66 -72 -132 -270 -354 0
-66 -72 -132 -270 -360 0
-66 -72 -132 -276 -354 0
-66 -72 -132 -276 -360 0
-66 -72 -132 -354 -360 0
-66 -72 -270 -276 -354 0
-66 -72 -270 -276 -360 0
-66 -72 -270 -354 -360 0
-66 -72 -276 -354 -360 0
-66 -126 -132 -270 -276 0
-66 -126 -132 -270 -354 0
-66 -126 -132 -270 -360 0
-66 -126 -132 -276 -354 0
-66 -126 -132 -276 -360 0
-66 -126 -132 -354 -360 0
-66 -126 -270 -276 -354 0
-66 -126 -270 -276 -360 0
-66 -126 -270 -354 -360 0
-66 -126 -276 -354 -360 0
-66 -132 -270 -276 -354 0
-66 -132 -270 -276 -360 0
-66 -132 -270 -354 -360 0
-66 -132 -276 -354 -360 0
-66 -270 -276 -354 -360 0
-72 -126 -132 -270 -276 0
-72 -126 -132 -270 -354 0
-72 -126 -132 -270 -360 0
-72 -126 -132 -276 -354 0
-72 -126 -132 -276 -360 0
-72 -126 -132 -354 -360 0
-72 -126 -270 -276 -354 0
-72 -126 -270 -276 -360 0
-72 -126 -270 -354 -360 0
-72 -126 -276 -354 -360 0
-72 -132 -270 -276 -354 0
-72 -132 -270 -276 -360 0
-72 -132 -270 -354 -360 0
-72 -132 -276 -354 -360 0
-72 -270 -276 -354 -360 0
-126 -132 -270 -276 -354 0
-126 -132 -270 -276 -360 0
-126 -132 -270 -354 -360 0
-126 -132 -276 -354 -360 0
-126 -270 -276 -354 -360 0
-132 -270 -276 -354 -360 0
66 72 126 132 270 0
66 72 126 132 276 0
66 72 126 132 354 0
66 72 126 132 360 0
66 72 126 270 276 0
66 72 126 270 354 0
66 72 126 270 360 0
66 72 126 276 354 0
66 72 126 276 360 0
66 72 126 354 360 0
66 72 132 270 276 0
66 72 132 270 354 0
66 72 132 270 360 0
66 72 132 276 354 0
66 72 132 276 360 0
66 72 132 354 360 0
66 72 270 276 354 0
66 72 270 276 360 0
66 72 270 354 360 0
66 72 276 354 360 0
66 126 132 270 276 0
66 126 132 270 354 0
66 126 132 270 360 0
66 126 132 276 354 0
66 126 132 276 360 0
66 126 132 354 360 0
66 126 270 276 354 0
66 126 270 276 360 0
66 126 270 354 360 0
66 126 276 354 360 0
66 132 270 276 354 0
66 132 270 276 360 0
66 132 270 354 360 0
66 132 276 354 360 0
66 270 276 354 360 0
72 126 132 270 276 0
72 126 132 270 354 0
72 126 132 270 360 0
72 126 132 276 354 0
72 126 132 276 360 0
72 126 132 354 360 0
72 126 270 276 354 0
72 126 270 276 360 0
72 126 270 354 360 0
72 126 276 354 360 0
72 132 270 276 354 0
72 132 270 276 360 0
72 132 270 354 360 0
72 132 276 354 360 0
72 270 276 354 360 0
126 132 270 276 354 0
126 132 270 276 360 0
126 132 270 354 360 0
126 132 276 354 360 0
126 270 276 354 360 0
132 270 276 354 360 0
-522 -537 -672 0
-522 -537 -687 0
-522 -537 -1032 0
-522 -537 -1047 0
-522 -537 -1242 0
-522 -537 -1257 0
-522 -672 -687 0
-522 -672 -1032 0
-522 -672 -1047 0
-522 -672 -1242 0
-522 -672 -1257 0
-522 -687 -1032 0
-522 -687 -1047 0
-522 -687 -1242 0
-522 -687 -1257 0
-522 -1032 -1047 0
-522 -1032 -1242 0
-522 -1032 -1257 0
-522 -1047 -1242 0
-522 -1047 -1257 0
-522 -1242 -1257 0
-537 -672 -687 0
-537 -672 -1032 0
-537 -672 -1047 0
-537 -672 -1242 0
-537 -672 -1257 0
-537 -687 -1032 0
-537 -687 -1047 0
-537 -687 -1242 0
-537 -687 -1257 0
-537 -1032 -1047 0
-537 -1032 -1242 0
-537 -1032 -1257 0
-537 -1047 -1242 0
-537 -1047 -1257 0
-537 -1242 -1257 0
-672 -687 -1032 0
-672 -687 -1047 0
-672 -687 -1242 0
-672 -687 -1257 0
-672 -1032 -1047 0
-672 -1032 -1242 0
-672 -1032 -1257 0
-672 -1047 -1242 0
-672 -1047 -1257 0
-672 -1242 -1257 0
-687 -1032 -1047 0
-687 -1032 -1242 0
-687 -1032 -1257 0
-687 -1047 -1242 0
-687 -1047 -1257 0
-687 -1242 -1257 0
-1032 -1047 -1242 0
-1032 -1047 -1257 0
-1032 -1242 -1257 0
-1047 -1242 -1257 0
522 537 672 687 1032 1047 1242 0
522 537 672 687 1032 1047 1257 0
522 537 672 687 1032 1242 1257 0
522 537 672 687 1047 1242 1257 0
522 537 672 1032 1047 1242 1257 0
522 537 687 1032 1047 1242 1257 0
522 672 687 1032 1047 1242 1257 0
537 672 687 1032 1047 1242 1257 0
-15 -21 -75 -81 -219 0
-15 -21 -75 -81 -225 0
-15 -21 -75 -81 -303 0
-15 -21 -75 -81 -309 0
-15 -21 -75 -219 -225 0
-15 -21 -75 -219 -303 0
-15 -21 -75 -219 -309 0
-15 -21 -75 -225 -303 0
-15 -21 -75 -225 -309 0
-15 -21 -75 -303 -309 0
-15 -21 -81 -219 -225 0
-15 -21 -81 -219 -303 0
-15 -21 -81 -219 -309 0
-15 -21 -81 -225 -303 0
-15 -21 -81 -225 -309 0
-15 -21 -81 -303 -309 0
-15 -21 -219 -225 -303 0
-15 -21 -219 -225 -309 0
-15 -21 -219 -303 -309 0
-15 -21 -225 -303 -309 0
-15 -75 -81 -219 -225 0
-15 -75 -81 -219 -303 0
-15 -75 -81 -219 -309 0
-15 -75 -81 -225 -303 0
-15 -75 -81 -225 -309 0
-15 -75 -81 -303 -309 0
-15 -75 -219 -225 -303 0
-15 -75 -219 -225 -309 0
-15 -75 -219 -303 -309 0
-15 -75 -225 -303 -309 0
-15 -81 -219 -225 -303 0
-15 -81 -219 -225 -309 0
-15 -81 -219 -303 -309 0
-15 -81 -225 -303 -309 0
-15 -219 -225 -303 -309 0
-21 -75 -81 -219 -225 0
-21 -75 -81 -219 -303 0
-21 -75 -81 -219 -309 0
-21 -75 -81 -225 -303 0
-21 -75 -81 -225 -309 0
-21 -75 -81 -303 -309 0
-21 -75 -219 -225 -303 0
-21 -75 -219 -225 -309 0
-21 -75 -219 -303 -309 0
-21 -75 -225 -303 -309 0
-21 -81 -219 -225 -303 0
-21 -81 -219 -225 -309 0
-21 -81 -219 -303 -309 0
-21 -81 -225 -303 -309 0
-21 -219 -225 -303 -309 0
-75 -81 -219 -225 -303 0
-75 -81 -219 -225 -309 0
-75 -81 -219 -303 -309 0
-75 -81 -225 -303 -309 0
-75 -219 -225 -303 -309 0
-81 -219 -225 -303 -309 0
15 21 75 81 219 0
15 21 75 81 225 0
15 21 75 81 303 0
15 21 75 81 309 0
15 21 75 219 225 0
15 21 75 219 303 0
15 21 75 219 309 0
15 21 75 225 303 0
15 21 75 225 309 0
15 21 75 303 309 0
15 21 81 219 225 0
15 21 81 219 303 0
15 21 81 219 309 0
15 21 81 225 303 0
15 21 81 225 309 0
15 21 81 303 309 0
15 21 219 225 303 0
15 21 219 225 309 0
15 21 219 303 309 0
15 21 225 303 309 0
15 75 81 219 225 0
15 75 81 219 303 0
15 75 81 219 309 0
15 75 81 225 303 0
15 75 81 225 309 0
15 75 81 303 309 0
15 75 219 225 303 0
15 75 219 225 309 0
15 75 219 303 309 0
15 75 225 303 309 0
15 81 219 225 303 0
15 81 219 225 309 0
15 81 219 303 309 0
15 81 225 303 309 0
15 219 225 303 309 0
21 75 81 219 225 0
21 75 81 219 303 0
21 75 81 219 309 0
21 75 81 225 303 0
21 75 81 225 309 0
21 75 81 303 309 0
21 75 219 225 303 0
21 75 219 225 309 0
21 75 219 303 309 0
21 75 225 303 309 0
21 81 219 225 303 0
21 81 219 225 309 0
21 81 219 303 309 0
21 81 225 303 309 0
21 219 225 303 309 0
75 81 219 225 303 0
75 81 219 225 309 0
75 81 219 303 309 0
75 81 225 303 309 0
75 219 225 303 309 0
81 219 225 303 309 0
-18 -24 -78 -84 -222 0
-18 -24 -78 -84 -228 0
-18 -24 -78 -84 -306 0
-18 -24 -78 -84 -312 0
-18 -24 -78 -222 -228 0
-18 -24 -78 -222 -306 0
-18 -24 -78 -222 -312 0
-18 -24 -78 -228 -306 0
-18 -24 -78 -228 -312 0
-18 -24 -78 -306 -312 0
-18 -24 -84 -222 -228 0
-18 -24 -84 -222 -306 0
-18 -24 -84 -222 -312 0
-18 -24 -84 -228 -306 0
-18 -24 -84 -228 -312 0
-18 -24 -84 -306 -312 0
-18 -24 -222 -228 -306 0
-18 -24 -222 -228 -312 0
-18 -24 -222 -306 -312 0
-18 -24 -228 -306 -312 0
-18 -78 -84 -222 -228 0
-18 -78 -84 -222 -306 0
-18 -78 -84 -222 -312 0
-18 -78 -84 -228 -306 0
-18 -78 -84 -228 -312 0
-18 -78 -84 -306 -312 0
-18 -78 -222 -228 -306 0
-18 -78 -222 -228 -312 0
-18 -78 -222 -306 -312 0
-18 -78 -228 -306 -312 0
-18 -84 -222 -228 -306 0
-18 -84 -222 -228 -312 0
-18 -84 -222 -306 -312 0
-18 -84 -228 -306 -312 0
-18 -222 -228 -306 -312 0
-24 -78 -84 -222 -228 0
-24 -78 -84 -222 -306 0
-24 -78 -84 -222 -312 0
-24 -78 -84 -228 -306 0
-24 -78 -84 -228 -312 0
-24 -78 -84 -306 -312 0
-24 -78 -222 -228 -306 0
-24 -78 -222 -228 -312 0
-24 -78 -222 -306 -312 0
-24 -78 -228 -306 -312 0
-24 -84 -222 -228 -306 0
-24 -84 -222 -228 -312 0
-24 -84 -222 -306 -312 0
-24 -84 -228 -306 -312 0
-24 -222 -228 -306 -312 0
-78 -84 -222 -228 -306 0
-78 -84 -222 -228 -312 0
-78 -84 -222 -306 -312 0
-78 -84 -228 -306 -312 0
-78 -222 -228 -306 -312 0
-84 -222 -228 -306 -312 0
18 24 78 84 222 0
18 24 78 84 228 0
18 24 78 84 306 0
18 24 78 84 312 0
18 24 78 222 228 0
18 24 78 222 306 0
18 24 78 222 312 0
18 24 78 228 306 0
18 24 78 228 312 0
18 24 78 306 312 0
18 24 84 222 228 0
18 24 84 222 306 0
18 24 84 222 312 0
18 24 84 228 306 0
18 24 84 228 312 0
18 24 84 306 312 0
18 24 222 228 306 0
18 24 222 228 312 0
18 24 222 306 312 0
18 24 228 306 312 0
18 78 84 222 228 0
18 78 84 222 306 0
18 78 84 222 312 0
18 78 84 228 306 0
18 78 84 228 312 0
18 78 84 306 312 0
18 78 222 228 306 0
18 78 222 228 312 0
18 78 222 306 312 0
18 78 228 306 312 0
18 84 222 228 306 0
18 84 222 228 312 0
18 84 222 306 312 0
18 84 228 306 312 0
18 222 228 306 312 0
24 78 84 222 228 0
24 78 84 222 306 0
24 78 84 222 312 0
24 78 84 228 306 0
24 78 84 228 312 0
24 78 84 306 312 0
24 78 222 228 306 0
24 78 222 228 312 0
24 78 222 306 312 0
24 78 228 306 312 0
24 84 222 228 306 0
24 84 222 228 312 0
24 84 222 306 312 0
24 84 228 306 312 0
24 222 228 306 312 0
78 84 222 228 306 0
78 84 222 228 312 0
78 84 222 306 312 0
78 84 228 306 312 0
78 222 228 306 312 0
84 222 228 306 312 0
-402 -417 -552 0
-402 -417 -567 0
-402 -417 -912 0
-402 -417 -927 0
-402 -417 -1122 0
-402 -417 -1137 0
-402 -552 -567 0
-402 -552 -912 0
-402 -552 -927 0
-402 -552 -1122 0
-402 -552 -1137 0
-402 -567 -912 0
-402 -567 -927 0
-402 -567 -1122 0
-402 -567 -1137 0
-402 -912 -927 0
-402 -912 -1122 0
-402 -912 -1137 0
-402 -927 -1122 0
-402 -927 -1137 0
-402 -1122 -1137 0
-417 -552 -567 0
-417 -552 -912 0
-417 -552 -927 0
-417 -552 -1122 0
-417 -552 -1137 0
-417 -567 -912 0
-417 -567 -927 0
-417 -567 -1122 0
-417 -567 -1137 0
-417 -912 -927 0
-417 -912 -1122 0
-417 -912 -1137 0
-417 -927 -1122 0
-417 -927 -1137 0
-417 -1122 -1137 0
-552 -567 -912 0
-552 -567 -927 0
-552 -567 -1122 0
-552 -567 -1137 0
-552 -912 -927 0
-552 -912 -1122 0
-552 -912 -1137 0
-552 -927 -1122 0
-552 -927 -1137 0
-552 -1122 -1137 0
-567 -912 -927 0
-567 -912 -1122 0
-567 -912 -1137 0
-567 -927 -1122 0
-567 -927 -1137 0
-567 -1122 -1137 0
-912 -927 -1122 0
-912 -927 -1137 0
-912 -1122 -1137 0
-927 -1122 -1137 0
402 417 552 567 912 927 1122 0
402 417 552 567 912 927 1137 0
402 417 552 567 912 1122 1137 0
402 417 552 567 927 1122 1137 0
402 417 552 912 927 1122 1137 0
402 417 567 912 927 1122 1137 0
402 552 567 912 927 1122 1137 0
417 552 567 912 927 1122 1137 0
-171 -177 -183 0
-171 -177 -189 0
-171 -183 -189 0
-177 -183 -189 0
171 177 183 0
171 177 189 0
171 183 189 0
177 183 189 0
-174 -180 -186 0
-174 -180 -192 0
-174 -186 -192 0
-180 -186 -192 0
174 180 186 0
174 180 192 0
174 186 192 0
180 186 192 0
-792 -807 0
-792 -822 0
-792 -837 0
-807 -822 0
-807 -837 0
-822 -837 0
792 807 822 837 0
-51 -57 -135 -141 -279 0
-51 -57 -135 -141 -285 0
-51 -57 -135 -141 -339 0
-51 -57 -135 -141 -345 0
-51 -57 -135 -279 -285 0
-51 -57 -135 -279 -339 0
-51 -57 -135 -279 -345 0
-51 -57 -135 -285 -339 0
-51 -57 -135 -285 -345 0
-51 -57 -135 -339 -345 0
-51 -57 -141 -279 -285 0
-51 -57 -141 -279 -339 0
-51 -57 -141 -279 -345 0
-51 -57 -141 -285 -339 0
-51 -57 -141 -285 -345 0
-51 -57 -141 -339 -345 0
-51 -57 -279 -285 -339 0
-51 -57 -279 -285 -345 0
-51 -57 -279 -339 -345 0
-51 -57 -285 -339 -345 0
-51 -135 -141 -279 -285 0
-51 -135 -141 -279 -339 0
-51 -135 -141 -279 -345 0
-51 -135 -141 -285 -339 0
-51 -135 -141 -285 -345 0
-51 -135 -141 -339 -345 0
-51 -135 -279 -285 -339 0
-51 -135 -279 -285 -345 0
-51 -135 -279 -339 -345 0
-51 -135 -285 -339 -345 0
-51 -141 -279 -285 -339 0
-51 -141 -279 -285 -345 0
-51 -141 -279 -339 -345 0
-51 -141 -285 -339 -345 0
-51 -279 -285 -339 -345 0
-57 -135 -141 -279 -285 0
-57 -135 -141 -279 -339 0
-57 -135 -141 -279 -345 0
-57 -135 -141 -285 -339 0
-57 -135 -141 -285 -345 0
-57 -135 -141 -339 -345 0
-57 -135 -279 -285 -339 0
-57 -135 -279 -285 -345 0
-57 -135 -279 -339 -345 0
-57 -135 -285 -339 -345 0
-57 -141 -279 -285 -339 0
-57 -141 -279 -285 -345 0
-57 -141 -279 -339 -345 0
-57 -141 -285 -339 -345 0
-57 -279 -285 -339 -345 0
-135 -141 -279 -285 -339 0
-135 -141 -279 -285 -345 0
-135 -141 -279 -339 -345 0
-135 -141 -285 -339 -345 0
-135 -279 -285 -339 -345 0
-141 -279 -285 -339 -345 0
51 57 135 141 279 0
51 57 135 141 285 0
51 57 135 141 339 0
51 57 135 141 345 0
51 57 135 279 285 0
51 57 135 279 339 0
51 57 135 279 345 0
51 57 135 285 339 0
51 57 135 285 345 0
51 57 135 339 345 0
51 57 141 279 285 0
51 57 141 279 339 0
51 57 141 279 345 0
51 57 141 285 339 0
51 57 141 285 345 0
51 57 141 339 345 0
51 57 279 285 339 0
51 57 279 285 345 0
51 57 279 339 345 0
51 57 285 339 345 0
51 135 141 279 285 0
51 135 141 279 339 0
51 135 141 279 345 0
51 135 141 285 339 0
51 135 141 285 345 0
51 135 141 339 345 0
51 135 279 285 339 0
51 135 279 285 345 0
51 135 279 339 345 0
51 135 285 339 345 0
51 141 279 285 339 0
51 141 279 285 345 0
51 141 279 339 345 0
51 141 285 339 345 0
51 279 285 339 345 0
57 135 141 279 285 0
57 135 141 279 339 0
57 135 141 279 345 0
57 135 141 285 339 0
57 135 141 285 345 0
57 135 141 339 345 0
57 135 279 285 339 0
57 135 279 285 345 0
57 135 279 339 345 0
57 135 285 339 345 0
57 141 279 285 339 0
57 141 279 285 345 0
57 141 279 339 345 0
57 141 285 339 345 0
57 279 285 339 345 0
135 141 279 285 339 0
135 141 279 285 345 0
135 141 279 339 345 0
135 141 285 339 345 0
135 279 285 339 345 0
141 279 285 339 345 0
-54 -60 -138 -144 -282 0
-54 -60 -138 -144 -288 0
-54 -60 -138 -144 -342 0
-54 -60 -138 -144 -348 0
-54 -60 -138 -282 -288 0
-54 -60 -138 -282 -342 0
-54 -60 -138 -282 -348 0
-54 -60 -138 -288 -342 0
-54 -60 -138 -288 -348 0
-54 -60 -138 -342 -348 0
-54 -60 -144 -282 -288 0
-54 -60 -144 -282 -342 0
-54 -60 -144 -282 -348 0
-54 -60 -144 -288 -342 0
-54 -60 -144 -288 -348 0
-54 -60 -144 -342 -348 0
-54 -60 -282 -288 -342 0
-54 -60 -282 -288 -348 0
-54 -60 -282 -342 -348 0
-54 -60 -288 -342 -348 0
-54 -138 -144 -282 -288 0
-54 -138 -144 -282 -342 0
-54 -138 -144 -282 -348 0
-54 -138 -144 -288 -342 0
-54 -138 -144 -288 -348 0
-54 -138 -144 -342 -348 0
-54 -138 -282 -288 -342 0
-54 -138 -282 -288 -348 0
-54 -138 -282 -342 -348 0
-54 -138 -288 -342 -348 0
-54 -144 -282 -288 -342 0
-54 -144 -282 -288 -348 0
-54 -144 -282 -342 -348 0
-54 -144 -288 -342 -348 0
-54 -282 -288 -342 -348 0
-60 -138 -144 -282 -288 0
-60 -138 -144 -282 -342 0
-60 -138 -144 -282 -348 0
-60 -138 -144 -288 -342 0
-60 -138 -144 -288 -348 0
-60 -138 -144 -342 -348 0
-60 -138 -282 -288 -342 0
-60 -138 -282 -288 -348 0
-60 -138 -282 -342 -348 0
-60 -138 -288 -342 -348 0
-60 -144 -282 -288 -342 0
-60 -144 -282 -288 -348 0
-60 -144 -282 -342 -348 0
-60 -144 -288 -342 -348 0
-60 -282 -288 -342 -348 0
-138 -144 -282 -288 -342 0
-138 -144 -282 -288 -348 0
-138 -144 -282 -342 -348 0
-138 -144 -288 -342 -348 0
-138 -282 -288 -342 -348 0
-144 -282 -288 -342 -348 0
54 60 138 144 282 0
54 60 138 144 288 0
54 60 138 144 342 0
54 60 138 144 348 0
54 60 138 282 288 0
54 60 138 282 342 0
54 60 138 282 348 0
54 60 138 288 342 0
54 60 138 288 348 0
54 60 138 342 348 0
54 60 144 282 288 0
54 60 144 282 342 0
54 60 144 282 348 0
54 60 144 288 342 0
54 60 144 288 348 0
54 60 144 342 348 0
54 60 282 288 342 0
54 60 282 288 348 0
54 60 282 342 348 0
54 60 288 342 348 0
54 138 144 282 288 0
54 138 144 282 342 0
54 138 144 282 348 0
54 138 144 288 342 0
54 138 144 288 348 0
54 138 144 342 348 0
54 138 282 288 342 0
54 138 282 288 348 0
54 138 282 342 348 0
54 138 288 342 348 0
54 144 282 288 342 0
54 144 282 288 348 0
54 144 282 342 348 0
54 144 288 342 348 0
54 282 288 342 348 0
60 138 144 282 288 0
60 138 144 282 342 0
60 138 144 282 348 0
60 138 144 288 342 0
60 138 144 288 348 0
60 138 144 342 348 0
60 138 282 288 342 0
60 138 282 288 348 0
60 138 282 342 348 0
60 138 288 342 348 0
60 144 282 288 342 0
60 144 282 288 348 0
60 144 282 342 348 0
60 144 288 342 348 0
60 282 288 342 348 0
138 144 282 288 342 0
138 144 282 288 348 0
138 144 282 342 348 0
138 144 288 342 348 0
138 282 288 342 348 0
144 282 288 342 348 0
-492 -507 -702 0
-492 -507 -717 0
-492 -507 -1062 0
-492 -507 -1077 0
-492 -507 -1212 0
-492 -507 -1227 0
-492 -702 -717 0
-492 -702 -1062 0
-492 -702 -1077 0
-492 -702 -1212 0
-492 -702 -1227 0
-492 -717 -1062 0
-492 -717 -1077 0
-492 -717 -1212 0
-492 -717 -1227 0
-492 -1062 -1077 0
-492 -1062 -1212 0
-492 -1062 -1227 0
-492 -1077 -1212 0
-492 -1077 -1227 0
-492 -1212 -1227 0
-507 -702 -717 0
-507 -702 -1062 0
-507 -702 -1077 0
-507 -702 -1212 0
-507 -702 -1227 0
-507 -717 -1062 0
-507 -717 -1077 0
-507 -717 -1212 0
-507 -717 -1227 0
-507 -1062 -1077 0
-507 -1062 -1212 0
-507 -1062 -1227 0
-507 -1077 -1212 0
-507 -1077 -1227 0
-507 -1212 -1227 0
-702 -717 -1062 0
-702 -717 -1077 0
-702 -717 -1212 0
-702 -717 -1227 0
-702 -1062 -1077 0
-702 -1062 -1212 0
-702 -1062 -1227 0
-702 -1077 -1212 0
-702 -1077 -1227 0
-702 -1212 -1227 0
-717 -1062 -1077 0
-717 -1062 -1212 0
-717 -1062 -1227 0
-717 -1077 -1212 0
-717 -1077 -1227 0
-717 -1212 -1227 0
-1062 -1077 -1212 0
-1062 -1077 -1227 0
-1062 -1212 -1227 0
-1077 -1212 -1227 0
492 507 702 717 1062 1077 1212 0
492 507 702 717 1062 1077 1227 0
492 507 702 717 1062 1212 1227 0
492 507 702 717 1077 1212 1227 0
492 507 702 1062 1077 1212 1227 0
492 507 717 1062 1077 1212 1227 0
492 702 717 1062 1077 1212 1227 0
507 702 717 1062 1077 1212 1227 0
-3 -9 -87 -93 -231 0
-3 -9 -87 -93 -237 0
-3 -9 -87 -93 -291 0
-3 -9 -87 -93 -297 0
-3 -9 -87 -231 -237 0
-3 -9 -87 -231 -291 0
-3 -9 -87 -231 -297 0
-3 -9 -87 -237 -291 0
-3 -9 -87 -237 -297 0
-3 -9 -87 -291 -297 0
-3 -9 -93 -231 -237 0
-3 -9 -93 -231 -291 0
-3 -9 -93 -231 -297 0
-3 -9 -93 -237 -291 0
-3 -9 -93 -237 -297 0
-3 -9 -93 -291 -297 0
-3 -9 -231 -237 -291 0
-3 -9 -231 -237 -297 0
-3 -9 -231 -291 -297 0
-3 -9 -237 -291 -297 0
-3 -87 -93 -231 -237 0
-3 -87 -93 -231 -291 0
-3 -87 -93 -231 -297 0
-3 -87 -93 -237 -291 0
-3 -87 -93 -237 -297 0
-3 -87 -93 -291 -297 0
-3 -87 -231 -237 -291 0
-3 -87 -231 -237 -297 0
-3 -87 -231 -291 -297 0
-3 -87 -237 -291 -297 0
-3 -93 -231 -237 -291 0
-3 -93 -231 -237 -297 0
-3 -93 -231 -291 -297 0
-3 -93 -237 -291 -297 0
-3 -231 -237 -291 -297 0
-9 -87 -93 -231 -237 0
-9 -87 -93 -231 -291 0
-9 -87 -93 -231 -297 0
-9 -87 -93 -237 -291 0
-9 -87 -93 -237 -297 0
-9 -87 -93 -291 -297 0
-9 -87 -231 -237 -291 0
-9 -87 -231 -237 -297 0
-9 -87 -231 -291 -297 0
-9 -87 -237 -291 -297 0
-9 -93 -231 -237 -291 0
-9 -93 -231 -237 -297 0
-9 -93 -231 -291 -297 0
-9 -93 -237 -291 -297 0
-9 -231 -237 -291 -297 0
-87 -93 -231 -237 -291 0
-87 -93 -231 -237 -297 0
-87 -93 -231 -291 -297 0
-87 -93 -237 -291 -297 0
-87 -231 -237 -291 -297 0
-93 -231 -237 -291 -297 0
3 9 87 93 231 0
3 9 87 93 237 0
3 9 87 93 291 0
3 9 87 93 297 0
3 9 87 231 237 0
3 9 87 231 291 0
3 9 87 231 297 0
3 9 87 237 291 0
3 9 87 237 297 0
3 9 87 291 297 0
3 9 93 231 237 0
3 9 93 231 291 0
3 9 93 231 297 0
3 9 93 237 291 0
3 9 93 237 297 0
3 9 93 291 297 0
3 9 231 237 291 0
3 9 231 237 297 0
3 9 231 291 297 0
3 9 237 291 297 0
3 87 93 231 237 0
3 87 93 231 291 0
3 87 93 231 297 0
3 87 93 237 291 0
3 87 93 237 297 0
3 87 93 291 297 0
3 87 231 237 291 0
3 87 231 237 297 0
3 87 231 291 297 0
3 87 237 291 297 0
3 93 231 237 291 0
3 93 231 237 297 0
3 93 231 291 297 0
3 93 237 291 297 0
3 231 237 291 297 0
9 87 93 231 237 0
9 87 93 231 291 0
9 87 93 231 297 0
9 87 93 237 291 0
9 87 93 237 297 0
9 87 93 291 297 0
9 87 231 237 291 0
9 87 231 237 297 0
9 87 231 291 297 0
9 87 237 291 297 0
9 93 231 237 291 0
9 93 231 237 297 0
9 93 231 291 297 0
9 93 237 291 297 0
9 231 237 291 297 0
87 93 231 237 291 0
87 93 231 237 297 0
87 93 231 291 297 0
87 93 237 291 297 0
87 231 237 291 297 0
93 231 237 291 297 0
-6 -12 -90 -96 -234 0
-6 -12 -90 -96 -240 0
-6 -12 -90 -96 -294 0
-6 -12 -90 -96 -300 0
-6 -12 -90 -234 -240 0
-6 -12 -90 -234 -294 0
-6 -12 -90 -234 -300 0
-6 -12 -90 -240 -294 0
-6 -12 -90 -240 -300 0
-6 -12 -90 -294 -300 0
-6 -12 -96 -234 -240 0
-6 -12 -96 -234 -294 0
-6 -12 -96 -234 -300 0
-6 -12 -96 -240 -294 0
-6 -12 -96 -240 -300 0
-6 -12 -96 -294 -300 0
-6 -12 -234 -240 -294 0
-6 -12 -234 -240 -300 0
-6 -12 -234 -294 -300 0
-6 -12 -240 -294 -300 0
-6 -90 -96 -234 -240 0
-6 -90 -96 -234 -294 0
-6 -90 -96 -234 -300 0
-6 -90 -96 -240 -294 0
-6 -90 -96 -240 -300 0
-6 -90 -96 -294 -300 0
-6 -90 -234 -240 -294 0
-6 -90 -234 -240 -300 0
-6 -90 -234 -294 -300 0
-6 -90 -240 -294 -300 0
-6 -96 -234 -240 -294 0
-6 -96 -234 -240 -300 0
-6 -96 -234 -294 -300 0
-6 -96 -240 -294 -300 0
-6 -234 -240 -294 -300 0
-12 -90 -96 -234 -240 0
-12 -90 -96 -234 -294 0
-12 -90 -96 -234 -300 0
-12 -90 -96 -240 -294 0
-12 -90 -96 -240 -300 0
-12 -90 -96 -294 -300 0
-12 -90 -234 -240 -294 0
-12 -90 -234 -240 -300 0
-12 -90 -234 -294 -300 0
-12 -90 -240 -294 -300 0
-12 -96 -234 -240 -294 0
-12 -96 -234 -240 -300 0
-12 -96 -234 -294 -300 0
-12 -96 -240 -294 -300 0
-12 -234 -240 -294 -300 0
-90 -96 -234 -240 -294 0
-90 -96 -234 -240 -300 0
-90 -96 -234 -294 -300 0
-90 -96 -240 -294 -300 0
-90 -234 -240 -294 -300 0
-96 -234 -240 -294 -300 0
6 12 90 96 234 0
6 12 90 96 240 0
6 12 90 96 294 0
6 12 90 96 300 0
6 12 90 234 240 0
6 12 90 234 294 0
6 12 90 234 300 0
6 12 90 240 294 0
6 12 90 240 300 0
6 12 90 294 300 0
6 12 96 234 240 0
6 12 96 234 294 0
6 12 96 234 300 0
6 12 96 240 294 0
6 12 96 240 300 0
6 12 96 294 300 0
6 12 234 240 294 0
6 12 234 240 300 0
6 12 234 294 300 0
6 12 240 294 300 0
6 90 96 234 240 0
6 90 96 234 294 0
6 90 96 234 300 0
6 90 96 240 294 0
6 90 96 240 300 0
6 90 96 294 300 0
6 90 234 240 294 0
6 90 234 240 300 0
6 90 234 294 300 0
6 90 240 294 300 0
6 96 234 240 294 0
6 96 234 240 300 0
6 96 234 294 300 0
6 96 240 294 300 0
6 234 240 294 300 0
12 90 96 234 240 0
12 90 96 234 294 0
12 90 96 234 300 0
12 90 96 240 294 0
12 90 96 240 300 0
12 90 96 294 300 0
12 90 234 240 294 0
12 90 234 240 300 0
12 90 234 294 300 0
12 90 240 294 300 0
12 96 234 240 294 0
12 96 234 240 300 0
12 96 234 294 300 0
12 96 240 294 300 0
12 234 240 294 300 0
90 96 234 240 294 0
90 96 234 240 300 0
90 96 234 294 300 0
90 96 240 294 300 0
90 234 240 294 300 0
96 234 240 294 300 0
-372 -387 -582 0
-372 -387 -597 0
-372 -387 -942 0
-372 -387 -957 0
-372 -387 -1092 0
-372 -387 -1107 0
-372 -582 -597 0
-372 -582 -942 0
-372 -582 -957 0
-372 -582 -1092 0
-372 -582 -1107 0
-372 -597 -942 0
-372 -597 -957 0
-372 -597 -1092 0
-372 -597 -1107 0
-372 -942 -957 0
-372 -942 -1092 0
-372 -942 -1107 0
-372 -957 -1092 0
-372 -957 -1107 0
-372 -1092 -1107 0
-387 -582 -597 0
-387 -582 -942 0
-387 -582 -957 0
-387 -582 -1092 0
-387 -582 -1107 0
-387 -597 -942 0
-387 -597 -957 0
-387 -597 -1092 0
-387 -597 -1107 0
-387 -942 -957 0
-387 -942 -1092 0
-387 -942 -1107 0
-387 -957 -1092 0
-387 -957 -1107 0
-387 -1092 -1107 0
-582 -597 -942 0
-582 -597 -957 0
-582 -597 -1092 0
-582 -597 -1107 0
-582 -942 -957 0
-582 -942 -1092 0
-582 -942 -1107 0
-582 -957 -1092 0
-582 -957 -1107 0
-582 -1092 -1107 0
-597 -942 -957 0
-597 -942 -1092 0
-597 -942 -1107 0
-597 -957 -1092 0
-597 -957 -1107 0
-597 -1092 -1107 0
-942 -957 -1092 0
-942 -957 -1107 0
-942 -1092 -1107 0
-957 -1092 -1107 0
372 387 582 597 942 957 1092 0
372 387 582 597 942 957 1107 0
372 387 582 597 942 1092 1107 0
372 387 582 597 957 1092 1107 0
372 387 582 942 957 1092 1107 0
372 387 597 942 957 1092 1107 0
372 582 597 942 957 1092 1107 0
387 582 597 942 957 1092 1107 0
-27 -33 -111 -117 -255 0
-27 -33 -111 -117 -261 0
-27 -33 -111 -117 -315 0
-27 -33 -111 -117 -321 0
-27 -33 -111 -255 -261 0
-27 -33 -111 -255 -315 0
-27 -33 -111 -255 -321 0
-27 -33 -111 -261 -315 0
-27 -33 -111 -261 -321 0
-27 -33 -111 -315 -321 0
-27 -33 -117 -255 -261 0
-27 -33 -117 -255 -315 0
-27 -33 -117 -255 -321 0
-27 -33 -117 -261 -315 0
-27 -33 -117 -261 -321 0
-27 -33 -117 -315 -321 0
-27 -33 -255 -261 -315 0
-27 -33 -255 -261 -321 0
-27 -33 -255 -315 -321 0
-27 -33 -261 -315 -321 0
-27 -111 -117 -255 -261 0
-27 -111 -117 -255 -315 0
-27 -111 -117 -255 -321 0
-27 -111 -117 -261 -315 0
-27 -111 -117 -261 -321 0
-27 -111 -117 -315 -321 0
-27 -111 -255 -261 -315 0
-27 -111 -255 -261 -321 0
-27 -111 -255 -315 -321 0
-27 -111 -261 -315 -321 0
-27 -117 -255 -261 -315 0
-27 -117 -255 -261 -321 0
-27 -117 -255 -315 -321 0
-27 -117 -261 -315 -321 0
-27 -255 -261 -315 -321 0
-33 -111 -117 -255 -261 0
-33 -111 -117 -255 -315 0
-33 -111 -117 -255 -321 0
-33 -111 -117 -261 -315 0
-33 -111 -117 -261 -321 0
-33 -111 -117 -315 -321 0
-33 -111 -255 -261 -315 0
-33 -111 -255 -261 -321 0
-33 -111 -255 -315 -321 0
-33 -111 -261 -315 -321 0
-33 -117 -255 -261 -315 0
-33 -117 -255 -261 -321 0
-33 -117 -255 -315 -321 0
-33 -117 -261 -315 -321 0
-33 -255 -261 -315 -321 0
-111 -117 -255 -261 -315 0
-111 -117 -255 -261 -321 0
-111 -117 -255 -315 -321 0
-111 -117 -261 -315 -321 0
-111 -255 -261 -315 -321 0
-117 -255 -261 -315 -321 0
27 33 111 117 255 0
27 33 111 117 261 0
27 33 111 117 315 0
27 33 111 117 321 0
27 33 111 255 261 0
27 33 111 255 315 0
27 33 111 255 321 0
27 33 111 261 315 0
27 33 111 261 321 0
27 33 111 315 321 0
27 33 117 255 261 0
27 33 117 255 315 0
27 33 117 255 321 0
27 33 117 261 315 0
27 33 117 261 321 0
27 33 117 315 321 0
27 33 255 261 315 0
27 33 255 261 321 0
27 33 255 315 321 0
27 33 261 315 321 0
27 111 117 255 261 0
27 111 117 255 315 0
27 111 117 255 321 0
27 111 117 261 315 0
27 111 117 261 321 0
27 111 117 315 321 0
27 111 255 261 315 0
27 111 255 261 321 0
27 111 255 315 321 0
27 111 261 315 321 0
27 117 255 261 315 0
27 117 255 261 321 0
27 117 255 315 321 0
27 117 261 315 321 0
27 255 261 315 321 0
33 111 117 255 261 0
33 111 117 255 315 0
33 111 117 255 321 0
33 111 117 261 315 0
33 111 117 261 321 0
33 111 117 315 321 0
33 111 255 261 315 0
33 111 255 261 321 0
33 111 255 315 321 0
33 111 261 315 321 0
33 117 255 261 315 0
33 117 255 261 321 0
33 117 255 315 321 0
33 117 261 315 321 0
33 255 261 315 321 0
111 117 255 261 315 0
111 117 255 261 321 0
111 117 255 315 321 0
111 117 261 315 321 0
111 255 261 315 321 0
117 255 261 315 321 0
-30 -36 -114 -120 -258 0
-30 -36 -114 -120 -264 0
-30 -36 -114 -120 -318 0
-30 -36 -114 -120 -324 0
-30 -36 -114 -258 -264 0
-30 -36 -114 -258 -318 0
-30 -36 -114 -258 -324 0
-30 -36 -114 -264 -318 0
-30 -36 -114 -264 -324 0
-30 -36 -114 -318 -324 0
-30 -36 -120 -258 -264 0
-30 -36 -120 -258 -318 0
-30 -36 -120 -258 -324 0
-30 -36 -120 -264 -318 0
-30 -36 -120 -264 -324 0
-30 -36 -120 -318 -324 0
-30 -36 -258 -264 -318 0
-30 -36 -258 -264 -324 0
-30 -36 -258 -318 -324 0
-30 -36 -264 -318 -324 0
-30 -114 -120 -258 -264 0
-30 -114 -120 -258 -318 0
-30 -114 -120 -258 -324 0
-30 -114 -120 -264 -318 0
-30 -114 -120 -264 -324 0
-30 -114 -120 -318 -324 0
-30 -114 -258 -264 -318 0
-30 -114 -258 -264 -324 0
-30 -114 -258 -318 -324 0
-30 -114 -264 -318 -324 0
-30 -120 -258 -264 -318 0
-30 -120 -258 -264 -324 0
-30 -120 -258 -318 -324 0
-30 -120 -264 -318 -324 0
-30 -258 -264 -318 -324 0
-36 -114 -120 -258 -264 0
-36 -114 -120 -258 -318 0
-36 -114 -120 -258 -324 0
-36 -114 -120 -264 -318 0
-36 -114 -120 -264 -324 0
-36 -114 -120 -318 -324 0
-36 -114 -258 -264 -318 0
-36 -114 -258 -264 -324 0
-36 -114 -258 -318 -324 0
-36 -114 -264 -318 -324 0
-36 -120 -258 -264 -318 0
-36 -120 -258 -264 -324 0
-36 -120 -258 -318 -324 0
-36 -120 -264 -318 -324 0
-36 -258 -264 -318 -324 0
-114 -120 -258 -264 -318 0
-114 -120 -258 -264 -324 0
-114 -120 -258 -318 -324 0
-114 -120 -264 -318 -324 0
-114 -258 -264 -318 -324 0
-120 -258 -264 -318 -324 0
30 36 114 120 258 0
30 36 114 120 264 0
30 36 114 120 318 0
30 36 114 120 324 0
30 36 114 258 264 0
30 36 114 258 318 0
30 36 114 258 324 0
30 36 114 264 318 0
30 36 114 264 324 0
30 36 114 318 324 0
30 36 120 258 264 0
30 36 120 258 318 0
30 36 120 258 324 0
30 36 120 264 318 0
30 36 120 264 324 0
30 36 120 318 324 0
30 36 258 264 318 0
30 36 258 264 324 0
30 36 258 318 324 0
30 36 264 318 324 0
30 114 120 258 264 0
30 114 120 258 318 0
30 114 120 258 324 0
30 114 120 264 318 0
30 114 120 264 324 0
30 114 120 318 324 0
30 114 258 264 318 0
30 114 258 264 324 0
30 114 258 318 324 0
30 114 264 318 324 0
30 120 258 264 318 0
30 120 258 264 324 0
30 120 258 318 324 0
30 120 264 318 324 0
30 258 264 318 324 0
36 114 120 258 264 0
36 114 120 258 318 0
36 114 120 258 324 0
36 114 120 264 318 0
36 114 120 264 324 0
36 114 120 318 324 0
36 114 258 264 318 0
36 114 258 264 324 0
36 114 258 318 324 0
36 114 264 318 324 0
36 120 258 264 318 0
36 120 258 264 324 0
36 120 258 318 324 0
36 120 264 318 324 0
36 258 264 318 324 0
114 120 258 264 318 0
114 120 258 264 324 0
114 120 258 318 324 0
114 120 264 318 324 0
114 258 264 318 324 0
120 258 264 318 324 0
-432 -447 -642 0
-432 -447 -657 0
-432 -447 -1002 0
-432 -447 -1017 0
-432 -447 -1152 0
-432 -447 -1167 0
-432 -642 -657 0
-432 -642 -1002 0
-432 -642 -1017 0
-432 -642 -1152 0
-432 -642 -1167 0
-432 -657 -1002 0
-432 -657 -1017 0
-432 -657 -1152 0
-432 -657 -1167 0
-432 -1002 -1017 0
-432 -1002 -1152 0
-432 -1002 -1167 0
-432 -1017 -1152 0
-432 -1017 -1167 0
-432 -1152 -1167 0
-447 -642 -657 0
-447 -642 -1002 0
-447 -642 -1017 0
-447 -642 -1152 0
-447 -642 -1167 0
-447 -657 -1002 0
-447 -657 -1017 0
-447 -657 -1152 0
-447 -657 -1167 0
-447 -1002 -1017 0
-447 -1002 -1152 0
-447 -1002 -1167 0
-447 -1017 -1152 0
-447 -1017 -1167 0
-447 -1152 -1167 0
-642 -657 -1002 0
-642 -657 -1017 0
-642 -657 -1152 0
-642 -657 -1167 0
-642 -1002 -1017 0
-642 -1002 -1152 0
-642 -1002 -1167 0
-642 -1017 -1152 0
-642 -1017 -1167 0
-642 -1152 -1167 0
-657 -1002 -1017 0
-657 -1002 -1152 0
-657 -1002 -1167 0
-657 -1017 -1152 0
-657 -1017 -1167 0
-657 -1152 -1167 0
-1002 -1017 -1152 0
-1002 -1017 -1167 0
-1002 -1152 -1167 0
-1017 -1152 -1167 0
432 447 642 657 1002 1017 1152 0
432 447 642 657 1002 1017 1167 0
432 447 642 657 1002 1152 1167 0
432 447 642 657 1017 1152 1167 0
432 447 642 1002 1017 1152 1167 0
432 447 657 1002 1017 1152 1167 0
432 642 657 1002 1017 1152 1167 0
447 642 657 1002 1017 1152 1167 0
-195 -201 -207 0
-195 -201 -213 0
-195 -207 -213 0
-201 -207 -213 0
195 201 207 0
195 201 213 0
195 207 213 0
201 207 213 0
-198 -204 -210 0
-198 -204 -216 0
-198 -210 -216 0
-204 -210 -216 0
198 204 210 0
198 204 216 0
198 210 216 0
204 210 216 0
-852 -867 0
-852 -882 0
-852 -897 0
-867 -882 0
-867 -897 0
-882 -897 0
852 867 882 897 0
-112 -118 -136 0
-112 -118 -142 0
-112 -136 -142 0
-118 -136 -142 0
112 118 136 0
112 118 142 0
112 136 142 0
118 136 142 0
-113 -119 -137 0
-113 -119 -143 0
-113 -137 -143 0
-119 -137 -143 0
113 119 137 0
113 119 143 0
113 137 143 0
119 137 143 0
-643 -658 0
-643 -703 0
-643 -718 0
-658 -703 0
-658 -718 0
-703 -718 0
643 658 703 718 0
-64 -70 -196 -202 -220 0
-64 -70 -196 -202 -226 0
-64 -70 -196 -202 -316 0
-64 -70 -196 -202 -322 0
-64 -70 -196 -220 -226 0
-64 -70 -196 -220 -316 0
-64 -70 -196 -220 -322 0
-64 -70 -196 -226 -316 0
-64 -70 -196 -226 -322 0
-64 -70 -196 -316 -322 0
-64 -70 -202 -220 -226 0
-64 -70 -202 -220 -316 0
-64 -70 -202 -220 -322 0
-64 -70 -202 -226 -316 0
-64 -70 -202 -226 -322 0
-64 -70 -202 -316 -322 0
-64 -70 -220 -226 -316 0
-64 -70 -220 -226 -322 0
-64 -70 -220 -316 -322 0
-64 -70 -226 -316 -322 0
-64 -196 -202 -220 -226 0
-64 -196 -202 -220 -316 0
-64 -196 -202 -220 -322 0
-64 -196 -202 -226 -316 0
-64 -196 -202 -226 -322 0
-64 -196 -202 -316 -322 0
-64 -196 -220 -226 -316 0
-64 -196 -220 -226 -322 0
-64 -196 -220 -316 -322 0
-64 -196 -226 -316 -322 0
-64 -202 -220 -226 -316 0
-64 -202 -220 -226 -322 0
-64 -202 -220 -316 -322 0
-64 -202 -226 -316 -322 0
-64 -220 -226 -316 -322 0
-70 -196 -202 -220 -226 0
-70 -196 -202 -220 -316 0
-70 -196 -202 -220 -322 0
-70 -196 -202 -226 -316 0
-70 -196 -202 -226 -322 0
-70 -196 -202 -316 -322 0
-70 -196 -220 -226 -316 0
-70 -196 -220 -226 -322 0
-70 -196 -220 -316 -322 0
-70 -196 -226 -316 -322 0
-70 -202 -220 -226 -316 0
-70 -202 -220 -226 -322 0
-70 -202 -220 -316 -322 0
-70 -202 -226 -316 -322 0
-70 -220 -226 -316 -322 0
-196 -202 -220 -226 -316 0
-196 -202 -220 -226 -322 0
-196 -202 -220 -316 -322 0
-196 -202 -226 -316 -322 0
-196 -220 -226 -316 -322 0
-202 -220 -226 -316 -322 0
64 70 196 202 220 0
64 70 196 202 226 0
64 70 196 202 316 0
64 70 196 202 322 0
64 70 196 220 226 0
64 70 196 220 316 0
64 70 196 220 322 0
64 70 196 226 316 0
64 70 196 226 322 0
64 70 196 316 322 0
64 70 202 220 226 0
64 70 202 220 316 0
64 70 202 220 322 0
64 70 202 226 316 0
64 70 202 226 322 0
64 70 202 316 322 0
64 70 220 226 316 0
64 70 220 226 322 0
64 70 220 316 322 0
64 70 226 316 322 0
64 196 202 220 226 0
64 196 202 220 316 0
64 196 202 220 322 0
64 196 202 226 316 0
64 196 202 226 322 0
64 196 202 316 322 0
64 196 220 226 316 0
64 196 220 226 322 0
64 196 220 316 322 0
64 196 226 316 322 0
64 202 220 226 316 0
64 202 220 226 322 0
64 202 220 316 322 0
64 202 226 316 322 0
64 220 226 316 322 0
70 196 202 220 226 0
70 196 202 220 316 0
70 196 202 220 322 0
70 196 202 226 316 0
70 196 202 226 322 0
70 196 202 316 322 0
70 196 220 226 316 0
70 196 220 226 322 0
70 196 220 316 322 0
70 196 226 316 322 0
70 202 220 226 316 0
70 202 220 226 322 0
70 202 220 316 322 0
70 202 226 316 322 0
70 220 226 316 322 0
196 202 220 226 316 0
196 202 220 226 322 0
196 202 220 316 322 0
196 202 226 316 322 0
196 220 226 316 322 0
202 220 226 316 322 0
-65 -71 -197 -203 -221 0
-65 -71 -197 -203 -227 0
-65 -71 -197 -203 -317 0
-65 -71 -197 -203 -323 0
-65 -71 -197 -221 -227 0
-65 -71 -197 -221 -317 0
-65 -71 -197 -221 -323 0
-65 -71 -197 -227 -317 0
-65 -71 -197 -227 -323 0
-65 -71 -197 -317 -323 0
-65 -71 -203 -221 -227 0
-65 -71 -203 -221 -317 0
-65 -71 -203 -221 -323 0
-65 -71 -203 -227 -317 0
-65 -71 -203 -227 -323 0
-65 -71 -203 -317 -323 0
-65 -71 -221 -227 -317 0
-65 -71 -221 -227 -323 0
-65 -71 -221 -317 -323 0
-65 -71 -227 -317 -323 0
-65 -197 -203 -221 -227 0
-65 -197 -203 -221 -317 0
-65 -197 -203 -221 -323 0
-65 -197 -203 -227 -317 0
-65 -197 -203 -227 -323 0
-65 -197 -203 -317 -323 0
-65 -197 -221 -227 -317 0
-65 -197 -221 -227 -323 0
-65 -197 -221 -317 -323 0
-65 -197 -227 -317 -323 0
-65 -203 -221 -227 -317 0
-65 -203 -221 -227 -323 0
-65 -203 -221 -317 -323 0
-65 -203 -227 -317 -323 0
-65 -221 -227 -317 -323 0
-71 -197 -203 -221 -227 0
-71 -197 -203 -221 -317 0
-71 -197 -203 -221 -323 0
-71 -197 -203 -227 -317 0
-71 -197 -203 -227 -323 0
-71 -197 -203 -317 -323 0
-71 -197 -221 -227 -317 0
-71 -197 -221 -227 -323 0
-71 -197 -221 -317 -323 0
-71 -197 -227 -317 -323 0
-71 -203 -221 -227 -317 0
-71 -203 -221 -227 -323 0
-71 -203 -221 -317 -323 0
-71 -203 -227 -317 -323 0
-71 -221 -227 -317 -323 0
-197 -203 -221 -227 -317 0
-197 -203 -221 -227 -323 0
-197 -203 -221 -317 -323 0
-197 -203 -227 -317 -323 0
-197 -221 -227 -317 -323 0
-203 -221 -227 -317 -323 0
65 71 197 203 221 0
65 71 197 203 227 0
65 71 197 203 317 0
65 71 197 203 323 0
65 71 197 221 227 0
65 71 197 221 317 0
65 71 197 221 323 0
65 71 197 227 317 0
65 71 197 227 323 0
65 71 197 317 323 0
65 71 203 221 227 0
65 71 203 221 317 0
65 71 203 221 323 0
65 71 203 227 317 0
65 71 203 227 323 0
65 71 203 317 323 0
65 71 221 227 317 0
65 71 221 227 323 0
65 71 221 317 323 0
65 71 227 317 323 0
65 197 203 221 227 0
65 197 203 221 317 0
65 197 203 221 323 0
65 197 203 227 317 0
65 197 203 227 323 0
65 197 203 317 323 0
65 197 221 227 317 0
65 197 221 227 323 0
65 197 221 317 323 0
65 197 227 317 323 0
65 203 221 227 317 0
65 203 221 227 323 0
65 203 221 317 323 0
65 203 227 317 323 0
65 221 227 317 323 0
71 197 203 221 227 0
71 197 203 221 317 0
71 197 203 221 323 0
71 197 203 227 317 0
71 197 203 227 323 0
71 197 203 317 323 0
71 197 221 227 317 0
71 197 221 227 323 0
71 197 221 317 323 0
71 197 227 317 323 0
71 203 221 227 317 0
71 203 221 227 323 0
71 203 221 317 323 0
71 203 227 317 323 0
71 221 227 317 323 0
197 203 221 227 317 0
197 203 221 227 323 0
197 203 221 317 323 0
197 203 227 317 323 0
197 221 227 317 323 0
203 221 227 317 323 0
-523 -538 -853 0
-523 -538 -868 0
-523 -538 -913 0
-523 -538 -928 0
-523 -538 -1153 0
-523 -538 -1168 0
-523 -853 -868 0
-523 -853 -913 0
-523 -853 -928 0
-523 -853 -1153 0
-523 -853 -1168 0
-523 -868 -913 0
-523 -868 -928 0
-523 -868 -1153 0
-523 -868 -1168 0
-523 -913 -928 0
-523 -913 -1153 0
-523 -913 -1168 0
-523 -928 -1153 0
-523 -928 -1168 0
-523 -1153 -1168 0
-538 -853 -868 0
-538 -853 -913 0
-538 -853 -928 0
-538 -853 -1153 0
-538 -853 -1168 0
-538 -868 -913 0
-538 -868 -928 0
-538 -868 -1153 0
-538 -868 -1168 0
-538 -913 -928 0
-538 -913 -1153 0
-538 -913 -1168 0
-538 -928 -1153 0
-538 -928 -1168 0
-538 -1153 -1168 0
-853 -868 -913 0
-853 -868 -928 0
-853 -868 -1153 0
-853 -868 -1168 0
-853 -913 -928 0
-853 -913 -1153 0
-853 -913 -1168 0
-853 -928 -1153 0
-853 -928 -1168 0
-853 -1153 -1168 0
-868 -913 -928 0
-868 -913 -1153 0
-868 -913 -1168 0
-868 -928 -1153 0
-868 -928 -1168 0
-868 -1153 -1168 0
-913 -928 -1153 0
-913 -928 -1168 0
-913 -1153 -1168 0
-928 -1153 -1168 0
523 538 853 868 913 928 1153 0
523 538 853 868 913 928 1168 0
523 538 853 868 913 1153 1168 0
523 538 853 868 928 1153 1168 0
523 538 853 913 928 1153 1168 0
523 538 868 913 928 1153 1168 0
523 853 868 913 928 1153 1168 0
538 853 868 913 928 1153 1168 0
-40 -46 -172 -178 -232 0
-40 -46 -172 -178 -238 0
-40 -46 -172 -178 -340 0
-40 -46 -172 -178 -346 0
-40 -46 -172 -232 -238 0
-40 -46 -172 -232 -340 0
-40 -46 -172 -232 -346 0
-40 -46 -172 -238 -340 0
-40 -46 -172 -238 -346 0
-40 -46 -172 -340 -346 0
-40 -46 -178 -232 -238 0
-40 -46 -178 -232 -340 0
-40 -46 -178 -232 -346 0
-40 -46 -178 -238 -340 0
-40 -46 -178 -238 -346 0
-40 -46 -178 -340 -346 0
-40 -46 -232 -238 -340 0
-40 -46 -232 -238 -346 0
-40 -46 -232 -340 -346 0
-40 -46 -238 -340 -346 0
-40 -172 -178 -232 -238 0
-40 -172 -178 -232 -340 0
-40 -172 -178 -232 -346 0
-40 -172 -178 -238 -340 0
-40 -172 -178 -238 -346 0
-40 -172 -178 -340 -346 0
-40 -172 -232 -238 -340 0
-40 -172 -232 -238 -346 0
-40 -172 -232 -340 -346 0
-40 -172 -238 -340 -346 0
-40 -178 -232 -238 -340 0
-40 -178 -232 -238 -346 0
-40 -178 -232 -340 -346 0
-40 -178 -238 -340 -346 0
-40 -232 -238 -340 -346 0
-46 -172 -178 -232 -238 0
-46 -172 -178 -232 -340 0
-46 -172 -178 -232 -346 0
-46 -172 -178 -238 -340 0
-46 -172 -178 -238 -346 0
-46 -172 -178 -340 -346 0
-46 -172 -232 -238 -340 0
-46 -172 -232 -238 -346 0
-46 -172 -232 -340 -346 0
-46 -172 -238 -340 -346 0
-46 -178 -232 -238 -340 0
-46 -178 -232 -238 -346 0
-46 -178 -232 -340 -346 0
-46 -178 -238 -340 -346 0
-46 -232 -238 -340 -346 0
-172 -178 -232 -238 -340 0
-172 -178 -232 -238 -346 0
-172 -178 -232 -340 -346 0
-172 -178 -238 -340 -346 0
-172 -232 -238 -340 -346 0
-178 -232 -238 -340 -346 0
40 46 172 178 232 0
40 46 172 178 238 0
40 46 172 178 340 0
40 46 172 178 346 0
40 46 172 232 238 0
40 46 172 232 340 0
40 46 172 232 346 0
40 46 172 238 340 0
40 46 172 238 346 0
40 46 172 340 346 0
40 46 178 232 238 0
40 46 178 232 340 0
40 46 178 232 346 0
40 46 178 238 340 0
40 46 178 238 346 0
40 46 178 340 346 0
40 46 232 238 340 0
40 46 232 238 346 0
40 46 232 340 346 0
40 46 238 340 346 0
40 172 178 232 238 0
40 172 178 232 340 0
40 172 178 232 346 0
40 172 178 238 340 0
40 172 178 238 346 0
40 172 178 340 346 0
40 172 232 238 340 0
40 172 232 238 346 0
40 172 232 340 346 0
40 172 238 340 346 0
40 178 232 238 340 0
40 178 232 238 346 0
40 178 232 340 346 0
40 178 238 340 346 0
40 232 238 340 346 0
46 172 178 232 238 0
46 172 178 232 340 0
46 172 178 232 346 0
46 172 178 238 340 0
46 172 178 238 346 0
46 172 178 340 346 0
46 172 232 238 340 0
46 172 232 238 346 0
46 172 232 340 346 0
46 172 238 340 346 0
46 178 232 238 340 0
46 178 232 238 346 0
46 178 232 340 346 0
46 178 238 340 346 0
46 232 238 340 346 0
172 178 232 238 340 0
172 178 232 238 346 0
172 178 232 340 346 0
172 178 238 340 346 0
172 232 238 340 346 0
178 232 238 340 346 0
-41 -47 -173 -179 -233 0
-41 -47 -173 -179 -239 0
-41 -47 -173 -179 -341 0
-41 -47 -173 -179 -347 0
-41 -47 -173 -233 -239 0
-41 -47 -173 -233 -341 0
-41 -47 -173 -233 -347 0
-41 -47 -173 -239 -341 0
-41 -47 -173 -239 -347 0
-41 -47 -173 -341 -347 0
-41 -47 -179 -233 -239 0
-41 -47 -179 -233 -341 0
-41 -47 -179 -233 -347 0
-41 -47 -179 -239 -341 0
-41 -47 -179 -239 -347 0
-41 -47 -179 -341 -347 0
-41 -47 -233 -239 -341 0
-41 -47 -233 -239 -347 0
-41 -47 -233 -341 -347 0
-41 -47 -239 -341 -347 0
-41 -173 -179 -233 -239 0
-41 -173 -179 -233 -341 0
-41 -173 -179 -233 -347 0
-41 -173 -179 -239 -341 0
-41 -173 -179 -239 -347 0
-41 -173 -179 -341 -347 0
-41 -173 -233 -239 -341 0
-41 -173 -233 -239 -347 0
-41 -173 -233 -341 -347 0
-41 -173 -239 -341 -347 0
-41 -179 -233 -239 -341 0
-41 -179 -233 -239 -347 0
-41 -179 -233 -341 -347 0
-41 -179 -239 -341 -347 0
-41 -233 -239 -341 -347 0
-47 -173 -179 -233 -239 0
-47 -173 -179 -233 -341 0
-47 -173 -179 -233 -347 0
-47 -173 -179 -239 -341 0
-47 -173 -179 -239 -347 0
-47 -173 -179 -341 -347 0
-47 -173 -233 -239 -341 0
-47 -173 -233 -239 -347 0
-47 -173 -233 -341 -347 0
-47 -173 -239 -341 -347 0
-47 -179 -233 -239 -341 0
-47 -179 -233 -239 -347 0
-47 -179 -233 -341 -347 0
-47 -179 -239 -341 -347 0
-47 -233 -239 -341 -347 0
-173 -179 -233 -239 -341 0
-173 -179 -233 -239 -347 0
-173 -179 -233 -341 -347 0
-173 -179 -239 -341 -347 0
-173 -233 -239 -341 -347 0
-179 -233 -239 -341 -347 0
41 47 173 179 233 0
41 47 173 179 239 0
41 47 173 179 341 0
41 47 173 179 347 0
41 47 173 233 239 0
41 47 173 233 341 0
41 47 173 233 347 0
41 47 173 239 341 0
41 47 173 239 347 0
41 47 173 341 347 0
41 47 179 233 239 0
41 47 179 233 341 0
41 47 179 233 347 0
41 47 179 239 341 0
41 47 179 239 347 0
41 47 179 341 347 0
41 47 233 239 341 0
41 47 233 239 347 0
41 47 233 341 347 0
41 47 239 341 347 0
41 173 179 233 239 0
41 173 179 233 341 0
41 173 179 233 347 0
41 173 179 239 341 0
41 173 179 239 347 0
41 173 179 341 347 0
41 173 233 239 341 0
41 173 233 239 347 0
41 173 233 341 347 0
41 173 239 341 347 0
41 179 233 239 341 0
41 179 233 239 347 0
41 179 233 341 347 0
41 179 239 341 347 0
41 233 239 341 347 0
47 173 179 233 239 0
47 173 179 233 341 0
47 173 179 233 347 0
47 173 179 239 341 0
47 173 179 239 347 0
47 173 179 341 347 0
47 173 233 239 341 0
47 173 233 239 347 0
47 173 233 341 347 0
47 173 239 341 347 0
47 179 233 239 341 0
47 179 233 239 347 0
47 179 233 341 347 0
47 179 239 341 347 0
47 233 239 341 347 0
173 179 233 239 341 0
173 179 233 239 347 0
173 179 233 341 347 0
173 179 239 341 347 0
173 233 239 341 347 0
179 233 239 341 347 0
-463 -478 -793 0
-463 -478 -808 0
-463 -478 -943 0
-463 -478 -958 0
-463 -478 -1213 0
-463 -478 -1228 0
-463 -793 -808 0
-463 -793 -943 0
-463 -793 -958 0
-463 -793 -1213 0
-463 -793 -1228 0
-463 -808 -943 0
-463 -808 -958 0
-463 -808 -1213 0
-463 -808 -1228 0
-463 -943 -958 0
-463 -943 -1213 0
-463 -943 -1228 0
-463 -958 -1213 0
-463 -958 -1228 0
-463 -1213 -1228 0
-478 -793 -808 0
-478 -793 -943 0
-478 -793 -958 0
-478 -793 -1213 0
-478 -793 -1228 0
-478 -808 -943 0
-478 -808 -958 0
-478 -808 -1213 0
-478 -808 -1228 0
-478 -943 -958 0
-478 -943 -1213 0
-478 -943 -1228 0
-478 -958 -1213 0
-478 -958 -1228 0
-478 -1213 -1228 0
-793 -808 -943 0
-793 -808 -958 0
-793 -808 -1213 0
-793 -808 -1228 0
-793 -943 -958 0
-793 -943 -1213 0
-793 -943 -1228 0
-793 -958 -1213 0
-793 -958 -1228 0
-793 -1213 -1228 0
-808 -943 -958 0
-808 -943 -1213 0
-808 -943 -1228 0
-808 -958 -1213 0
-808 -958 -1228 0
-808 -1213 -1228 0
-943 -958 -1213 0
-943 -958 -1228 0
-943 -1213 -1228 0
-958 -1213 -1228 0
463 478 793 808 943 958 1213 0
463 478 793 808 943 958 1228 0
463 478 793 808 943 1213 1228 0
463 478 793 808 958 1213 1228 0
463 478 793 943 958 1213 1228 0
463 478 808 943 958 1213 1228 0
463 793 808 943 958 1213 1228 0
478 793 808 943 958 1213 1228 0
-52 -58 -208 -214 -244 0
-52 -58 -208 -214 -250 0
-52 -58 -208 -214 -292 0
-52 -58 -208 -214 -298 0
-52 -58 -208 -244 -250 0
-52 -58 -208 -244 -292 0
-52 -58 -208 -244 -298 0
-52 -58 -208 -250 -292 0
-52 -58 -208 -250 -298 0
-52 -58 -208 -292 -298 0
-52 -58 -214 -244 -250 0
-52 -58 -214 -244 -292 0
-52 -58 -214 -244 -298 0
-52 -58 -214 -250 -292 0
-52 -58 -214 -250 -298 0
-52 -58 -214 -292 -298 0
-52 -58 -244 -250 -292 0
-52 -58 -244 -250 -298 0
-52 -58 -244 -292 -298 0
-52 -58 -250 -292 -298 0
-52 -208 -214 -244 -250 0
-52 -208 -214 -244 -292 0
-52 -208 -214 -244 -298 0
-52 -208 -214 -250 -292 0
-52 -208 -214 -250 -298 0
-52 -208 -214 -292 -298 0
-52 -208 -244 -250 -292 0
-52 -208 -244 -250 -298 0
-52 -208 -244 -292 -298 0
-52 -208 -250 -292 -298 0
-52 -214 -244 -250 -292 0
-52 -214 -244 -250 -298 0
-52 -214 -244 -292 -298 0
-52 -214 -250 -292 -298 0
-52 -244 -250 -292 -298 0
-58 -208 -214 -244 -250 0
-58 -208 -214 -244 -292 0
-58 -208 -214 -244 -298 0
-58 -208 -214 -250 -292 0
-58 -208 -214 -250 -298 0
-58 -208 -214 -292 -298 0
-58 -208 -244 -250 -292 0
-58 -208 -244 -250 -298 0
-58 -208 -244 -292 -298 0
-58 -208 -250 -292 -298 0
-58 -214 -244 -250 -292 0
-58 -214 -244 -250 -298 0
-58 -214 -244 -292 -298 0
-58 -214 -250 -292 -298 0
-58 -244 -250 -292 -298 0
-208 -214 -244 -250 -292 0
-208 -214 -244 -250 -298 0
-208 -214 -244 -292 -298 0
-208 -214 -250 -292 -298 0
-208 -244 -250 -292 -298 0
-214 -244 -250 -292 -298 0
52 58 208 214 244 0
52 58 208 214 250 0
52 58 208 214 292 0
52 58 208 214 298 0
52 58 208 244 250 0
52 58 208 244 292 0
52 58 208 244 298 0
52 58 208 250 292 0
52 58 208 250 298 0
52 58 208 292 298 0
52 58 214 244 250 0
52 58 214 244 292 0
52 58 214 244 298 0
52 58 214 250 292 0
52 58 214 250 298 0
52 58 214 292 298 0
52 58 244 250 292 0
52 58 244 250 298 0
52 58 244 292 298 0
52 58 250 292 298 0
52 208 214 244 250 0
52 208 214 244 292 0
52 208 214 244 298 0
52 208 214 250 292 0
52 208 214 250 298 0
52 208 214 292 298 0
52 208 244 250 292 0
52 208 244 250 298 0
52 208 244 292 298 0
52 208 250 292 298 0
52 214 244 250 292 0
52 214 244 250 298 0
52 214 244 292 298 0
52 214 250 292 298 0
52 244 250 292 298 0
58 208 214 244 250 0
58 208 214 244 292 0
58 208 214 244 298 0
58 208 214 250 292 0
58 208 214 250 298 0
58 208 214 292 298 0
58 208 244 250 292 0
58 208 244 250 298 0
58 208 244 292 298 0
58 208 250 292 298 0
58 214 244 250 292 0
58 214 244 250 298 0
58 214 244 292 298 0
58 214 250 292 298 0
58 244 250 292 298 0
208 214 244 250 292 0
208 214 244 250 298 0
208 214 244 292 298 0
208 214 250 292 298 0
208 244 250 292 298 0
214 244 250 292 298 0
-53 -59 -209 -215 -245 0
-53 -59 -209 -215 -251 0
-53 -59 -209 -215 -293 0
-53 -59 -209 -215 -299 0
-53 -59 -209 -245 -251 0
-53 -59 -209 -245 -293 0
-53 -59 -209 -245 -299 0
-53 -59 -209 -251 -293 0
-53 -59 -209 -251 -299 0
-53 -59 -209 -293 -299 0
-53 -59 -215 -245 -251 0
-53 -59 -215 -245 -293 0
-53 -59 -215 -245 -299 0
-53 -59 -215 -251 -293 0
-53 -59 -215 -251 -299 0
-53 -59 -215 -293 -299 0
-53 -59 -245 -251 -293 0
-53 -59 -245 -251 -299 0
-53 -59 -245 -293 -299 0
-53 -59 -251 -293 -299 0
-53 -209 -215 -245 -251 0
-53 -209 -215 -245 -293 0
-53 -209 -215 -245 -299 0
-53 -209 -215 -251 -293 0
-53 -209 -215 -251 -299 0
-53 -209 -215 -293 -299 0
-53 -209 -245 -251 -293 0
-53 -209 -245 -251 -299 0
-53 -209 -245 -293 -299 0
-53 -209 -251 -293 -299 0
-53 -215 -245 -251 -293 0
-53 -215 -245 -251 -299 0
-53 -215 -245 -293 -299 0
-53 -215 -251 -293 -299 0
-53 -245 -251 -293 -299 0
-59 -209 -215 -245 -251 0
-59 -209 -215 -245 -293 0
-59 -209 -215 -245 -299 0
-59 -209 -215 -251 -293 0
-59 -209 -215 -251 -299 0
-59 -209 -215 -293 -299 0
-59 -209 -245 -251 -293 0
-59 -209 -245 -251 -299 0
-59 -209 -245 -293 -299 0
-59 -209 -251 -293 -299 0
-59 -215 -245 -251 -293 0
-59 -215 -245 -251 -299 0
-59 -215 -245 -293 -299 0
-59 -215 -251 -293 -299 0
-59 -245 -251 -293 -299 0
-209 -215 -245 -251 -293 0
-209 -215 -245 -251 -299 0
-209 -215 -245 -293 -299 0
-209 -215 -251 -293 -299 0
-209 -245 -251 -293 -299 0
-215 -245 -251 -293 -299 0
53 59 209 215 245 0
53 59 209 215 251 0
53 59 209 215 293 0
53 59 209 215 299 0
53 59 209 245 251 0
53 59 209 245 293 0
53 59 209 245 299 0
53 59 209 251 293 0
53 59 209 251 299 0
53 59 209 293 299 0
53 59 215 245 251 0
53 59 215 245 293 0
53 59 215 245 299 0
53 59 215 251 293 0
53 59 215 251 299 0
53 59 215 293 299 0
53 59 245 251 293 0
53 59 245 251 299 0
53 59 245 293 299 0
53 59 251 293 299 0
53 209 215 245 251 0
53 209 215 245 293 0
53 209 215 245 299 0
53 209 215 251 293 0
53 209 215 251 299 0
53 209 215 293 299 0
53 209 245 251 293 0
53 209 245 251 299 0
53 209 245 293 299 0
53 209 251 293 299 0
53 215 245 251 293 0
53 215 245 251 299 0
53 215 245 293 299 0
53 215 251 293 299 0
53 245 251 293 299 0
59 209 215 245 251 0
59 209 215 245 293 0
59 209 215 245 299 0
59 209 215 251 293 0
59 209 215 251 299 0
59 209 215 293 299 0
59 209 245 251 293 0
59 209 245 251 299 0
59 209 245 293 299 0
59 209 251 293 299 0
59 215 245 251 293 0
59 215 245 251 299 0
59 215 245 293 299 0
59 215 251 293 299 0
59 245 251 293 299 0
209 215 245 251 293 0
209 215 245 251 299 0
209 215 245 293 299 0
209 215 251 293 299 0
209 245 251 293 299 0
215 245 251 293 299 0
-493 -508 -883 0
-493 -508 -898 0
-493 -508 -973 0
-493 -508 -988 0
-493 -508 -1093 0
-493 -508 -1108 0
-493 -883 -898 0
-493 -883 -973 0
-493 -883 -988 0
-493 -883 -1093 0
-493 -883 -1108 0
-493 -898 -973 0
-493 -898 -988 0
-493 -898 -1093 0
-493 -898 -1108 0
-493 -973 -988 0
-493 -973 -1093 0
-493 -973 -1108 0
-493 -988 -1093 0
-493 -988 -1108 0
-493 -1093 -1108 0
-508 -883 -898 0
-508 -883 -973 0
-508 -883 -988 0
-508 -883 -1093 0
-508 -883 -1108 0
-508 -898 -973 0
-508 -898 -988 0
-508 -898 -1093 0
-508 -898 -1108 0
-508 -973 -988 0
-508 -973 -1093 0
-508 -973 -1108 0
-508 -988 -1093 0
-508 -988 -1108 0
-508 -1093 -1108 0
-883 -898 -973 0
-883 -898 -988 0
-883 -898 -1093 0
-883 -898 -1108 0
-883 -973 -988 0
-883 -973 -1093 0
-883 -973 -1108 0
-883 -988 -1093 0
-883 -988 -1108 0
-883 -1093 -1108 0
-898 -973 -988 0
-898 -973 -1093 0
-898 -973 -1108 0
-898 -988 -1093 0
-898 -988 -1108 0
-898 -1093 -1108 0
-973 -988 -1093 0
-973 -988 -1108 0
-973 -1093 -1108 0
-988 -1093 -1108 0
493 508 883 898 973 988 1093 0
493 508 883 898 973 988 1108 0
493 508 883 898 973 1093 1108 0
493 508 883 898 988 1093 1108 0
493 508 883 973 988 1093 1108 0
493 508 898 973 988 1093 1108 0
493 883 898 973 988 1093 1108 0
508 883 898 973 988 1093 1108 0
-88 -94 -124 0
-88 -94 -130 0
-88 -124 -130 0
-94 -124 -130 0
88 94 124 0
88 94 130 0
88 124 130 0
94 124 130 0
-89 -95 -125 0
-89 -95 -131 0
-89 -125 -131 0
-95 -125 -131 0
89 95 125 0
89 95 131 0
89 125 131 0
95 125 131 0
-583 -598 0
-583 -673 0
-583 -688 0
-598 -673 0
-598 -688 0
-673 -688 0
583 598 673 688 0
-16 -22 -148 -154 -256 0
-16 -22 -148 -154 -262 0
-16 -22 -148 -154 -352 0
-16 -22 -148 -154 -358 0
-16 -22 -148 -256 -262 0
-16 -22 -148 -256 -352 0
-16 -22 -148 -256 -358 0
-16 -22 -148 -262 -352 0
-16 -22 -148 -262 -358 0
-16 -22 -148 -352 -358 0
-16 -22 -154 -256 -262 0
-16 -22 -154 -256 -352 0
-16 -22 -154 -256 -358 0
-16 -22 -154 -262 -352 0
-16 -22 -154 -262 -358 0
-16 -22 -154 -352 -358 0
-16 -22 -256 -262 -352 0
-16 -22 -256 -262 -358 0
-16 -22 -256 -352 -358 0
-16 -22 -262 -352 -358 0
-16 -148 -154 -256 -262 0
-16 -148 -154 -256 -352 0
-16 -148 -154 -256 -358 0
-16 -148 -154 -262 -352 0
-16 -148 -154 -262 -358 0
-16 -148 -154 -352 -358 0
-16 -148 -256 -262 -352 0
-16 -148 -256 -262 -358 0
-16 -148 -256 -352 -358 0
-16 -148 -262 -352 -358 0
-16 -154 -256 -262 -352 0
-16 -154 -256 -262 -358 0
-16 -154 -256 -352 -358 0
-16 -154 -262 -352 -358 0
-16 -256 -262 -352 -358 0
-22 -148 -154 -256 -262 0
-22 -148 -154 -256 -352 0
-22 -148 -154 -256 -358 0
-22 -148 -154 -262 -352 0
-22 -148 -154 -262 -358 0
-22 -148 -154 -352 -358 0
-22 -148 -256 -262 -352 0
-22 -148 -256 -262 -358 0
-22 -148 -256 -352 -358 0
-22 -148 -262 -352 -358 0
-22 -154 -256 -262 -352 0
-22 -154 -256 -262 -358 0
-22 -154 -256 -352 -358 0
-22 -154 -262 -352 -358 0
-22 -256 -262 -352 -358 0
-148 -154 -256 -262 -352 0
-148 -154 -256 -262 -358 0
-148 -154 -256 -352 -358 0
-148 -154 -262 -352 -358 0
-148 -256 -262 -352 -358 0
-154 -256 -262 -352 -358 0
16 22 148 154 256 0
16 22 148 154 262 0
16 22 148 154 352 0
16 22 148 154 358 0
16 22 148 256 262 0
16 22 148 256 352 0
16 22 148 256 358 0
16 22 148 262 352 0
16 22 148 262 358 0
16 22 148 352 358 0
16 22 154 256 262 0
16 22 154 256 352 0
16 22 154 256 358 0
16 22 154 262 352 0
16 22 154 262 358 0
16 22 154 352 358 0
16 22 256 262 352 0
16 22 256 262 358 0
16 22 256 352 358 0
16 22 262 352 358 0
16 148 154 256 262 0
16 148 154 256 352 0
16 148 154 256 358 0
16 148 154 262 352 0
16 148 154 262 358 0
16 148 154 352 358 0
16 148 256 262 352 0
16 148 256 262 358 0
16 148 256 352 358 0
16 148 262 352 358 0
16 154 256 262 352 0
16 154 256 262 358 0
16 154 256 352 358 0
16 154 262 352 358 0
16 256 262 352 358 0
22 148 154 256 262 0
22 148 154 256 352 0
22 148 154 256 358 0
22 148 154 262 352 0
22 148 154 262 358 0
22 148 154 352 358 0
22 148 256 262 352 0
22 148 256 262 358 0
22 148 256 352 358 0
22 148 262 352 358 0
22 154 256 262 352 0
22 154 256 262 358 0
22 154 256 352 358 0
22 154 262 352 358 0
22 256 262 352 358 0
148 154 256 262 352 0
148 154 256 262 358 0
148 154 256 352 358 0
148 154 262 352 358 0
148 256 262 352 358 0
154 256 262 352 358 0
-17 -23 -149 -155 -257 0
-17 -23 -149 -155 -263 0
-17 -23 -149 -155 -353 0
-17 -23 -149 -155 -359 0
-17 -23 -149 -257 -263 0
-17 -23 -149 -257 -353 0
-17 -23 -149 -257 -359 0
-17 -23 -149 -263 -353 0
-17 -23 -149 -263 -359 0
-17 -23 -149 -353 -359 0
-17 -23 -155 -257 -263 0
-17 -23 -155 -257 -353 0
-17 -23 -155 -257 -359 0
-17 -23 -155 -263 -353 0
-17 -23 -155 -263 -359 0
-17 -23 -155 -353 -359 0
-17 -23 -257 -263 -353 0
-17 -23 -257 -263 -359 0
-17 -23 -257 -353 -359 0
-17 -23 -263 -353 -359 0
-17 -149 -155 -257 -263 0
-17 -149 -155 -257 -353 0
-17 -149 -155 -257 -359 0
-17 -149 -155 -263 -353 0
-17 -149 -155 -263 -359 0
-17 -149 -155 -353 -359 0
-17 -149 -257 -263 -353 0
-17 -149 -257 -263 -359 0
-17 -149 -257 -353 -359 0
-17 -149 -263 -353 -359 0
-17 -155 -257 -263 -353 0
-17 -155 -257 -263 -359 0
-17 -155 -257 -353 -359 0
-17 -155 -263 -353 -359 0
-17 -257 -263 -353 -359 0
-23 -149 -155 -257 -263 0
-23 -149 -155 -257 -353 0
-23 -149 -155 -257 -359 0
-23 -149 -155 -263 -353 0
-23 -149 -155 -263 -359 0
-23 -149 -155 -353 -359 0
-23 -149 -257 -263 -353 0
-23 -149 -257 -263 -359 0
-23 -149 -257 -353 -359 0
-23 -149 -263 -353 -359 0
-23 -155 -257 -263 -353 0
-23 -155 -257 -263 -359 0
-23 -155 -257 -353 -359 0
-23 -155 -263 -353 -359 0
-23 -257 -263 -353 -359 0
-149 -155 -257 -263 -353 0
-149 -155 -257 -263 -359 0
-149 -155 -257 -353 -359 0
-149 -155 -263 -353 -359 0
-149 -257 -263 -353 -359 0
-155 -257 -263 -353 -359 0
17 23 149 155 257 0
17 23 149 155 263 0
17 23 149 155 353 0
17 23 149 155 359 0
17 23 149 257 263 0
17 23 149 257 353 0
17 23 149 257 359 0
17 23 149 263 353 0
17 23 149 263 359 0
17 23 149 353 359 0
17 23 155 257 263 0
17 23 155 257 353 0
17 23 155 257 359 0
17 23 155 263 353 0
17 23 155 263 359 0
17 23 155 353 359 0
17 23 257 263 353 0
17 23 257 263 359 0
17 23 257 353 359 0
17 23 263 353 359 0
17 149 155 257 263 0
17 149 155 257 353 0
17 149 155 257 359 0
17 149 155 263 353 0
17 149 155 263 359 0
17 149 155 353 359 0
17 149 257 263 353 0
17 149 257 263 359 0
17 149 257 353 359 0
17 149 263 353 359 0
17 155 257 263 353 0
17 155 257 263 359 0
17 155 257 353 359 0
17 155 263 353 359 0
17 257 263 353 359 0
23 149 155 257 263 0
23 149 155 257 353 0
23 149 155 257 359 0
23 149 155 263 353 0
23 149 155 263 359 0
23 149 155 353 359 0
23 149 257 263 353 0
23 149 257 263 359 0
23 149 257 353 359 0
23 149 263 353 359 0
23 155 257 263 353 0
23 155 257 263 359 0
23 155 257 353 359 0
23 155 263 353 359 0
23 257 263 353 359 0
149 155 257 263 353 0
149 155 257 263 359 0
149 155 257 353 359 0
149 155 263 353 359 0
149 257 263 353 359 0
155 257 263 353 359 0
-403 -418 -733 0
-403 -418 -748 0
-403 -418 -1003 0
-403 -418 -1018 0
-403 -418 -1243 0
-403 -418 -1258 0
-403 -733 -748 0
-403 -733 -1003 0
-403 -733 -1018 0
-403 -733 -1243 0
-403 -733 -1258 0
-403 -748 -1003 0
-403 -748 -1018 0
-403 -748 -1243 0
-403 -748 -1258 0
-403 -1003 -1018 0
-403 -1003 -1243 0
-403 -1003 -1258 0
-403 -1018 -1243 0
-403 -1018 -1258 0
-403 -1243 -1258 0
-418 -733 -748 0
-418 -733 -1003 0
-418 -733 -1018 0
-418 -733 -1243 0
-418 -733 -1258 0
-418 -748 -1003 0
-418 -748 -1018 0
-418 -748 -1243 0
-418 -748 -1258 0
-418 -1003 -1018 0
-418 -1003 -1243 0
-418 -1003 -1258 0
-418 -1018 -1243 0
-418 -1018 -1258 0
-418 -1243 -1258 0
-733 -748 -1003 0
-733 -748 -1018 0
-733 -748 -1243 0
-733 -748 -1258 0
-733 -1003 -1018 0
-733 -1003 -1243 0
-733 -1003 -1258 0
-733 -1018 -1243 0
-733 -1018 -1258 0
-733 -1243 -1258 0
-748 -1003 -1018 0
-748 -1003 -1243 0
-748 -1003 -1258 0
-748 -1018 -1243 0
-748 -1018 -1258 0
-748 -1243 -1258 0
-1003 -1018 -1243 0
-1003 -1018 -1258 0
-1003 -1243 -1258 0
-1018 -1243 -1258 0
403 418 733 748 1003 1018 1243 0
403 418 733 748 1003 1018 1258 0
403 418 733 748 1003 1243 1258 0
403 418 733 748 1018 1243 1258 0
403 418 733 1003 1018 1243 1258 0
403 418 748 1003 1018 1243 1258 0
403 733 748 1003 1018 1243 1258 0
418 733 748 1003 1018 1243 1258 0
-28 -34 -184 -190 -268 0
-28 -34 -184 -190 -274 0
-28 -34 -184 -190 -304 0
-28 -34 -184 -190 -310 0
-28 -34 -184 -268 -274 0
-28 -34 -184 -268 -304 0
-28 -34 -184 -268 -310 0
-28 -34 -184 -274 -304 0
-28 -34 -184 -274 -310 0
-28 -34 -184 -304 -310 0
-28 -34 -190 -268 -274 0
-28 -34 -190 -268 -304 0
-28 -34 -190 -268 -310 0
-28 -34 -190 -274 -304 0
-28 -34 -190 -274 -310 0
-28 -34 -190 -304 -310 0
-28 -34 -268 -274 -304 0
-28 -34 -268 -274 -310 0
-28 -34 -268 -304 -310 0
-28 -34 -274 -304 -310 0
-28 -184 -190 -268 -274 0
-28 -184 -190 -268 -304 0
-28 -184 -190 -268 -310 0
-28 -184 -190 -274 -304 0
-28 -184 -190 -274 -310 0
-28 -184 -190 -304 -310 0
-28 -184 -268 -274 -304 0
-28 -184 -268 -274 -310 0
-28 -184 -268 -304 -310 0
-28 -184 -274 -304 -310 0
-28 -190 -268 -274 -304 0
-28 -190 -268 -274 -310 0
-28 -190 -268 -304 -310 0
-28 -190 -274 -304 -310 0
-28 -268 -274 -304 -310 0
-34 -184 -190 -268 -274 0
-34 -184 -190 -268 -304 0
-34 -184 -190 -268 -310 0
-34 -184 -190 -274 -304 0
-34 -184 -190 -274 -310 0
-34 -184 -190 -304 -310 0
-34 -184 -268 -274 -304 0
-34 -184 -268 -274 -310 0
-34 -184 -268 -304 -310 0
-34 -184 -274 -304 -310 0
-34 -190 -268 -274 -304 0
-34 -190 -268 -274 -310 0
-34 -190 -268 -304 -310 0
-34 -190 -274 -304 -310 0
-34 -268 -274 -304 -310 0
-184 -190 -268 -274 -304 0
-184 -190 -268 -274 -310 0
-184 -190 -268 -304 -310 0
-184 -190 -274 -304 -310 0
-184 -268 -274 -304 -310 0
-190 -268 -274 -304 -310 0
28 34 184 190 268 0
28 34 184 190 274 0
28 34 184 190 304 0
28 34 184 190 310 0
28 34 184 268 274 0
28 34 184 268 304 0
28 34 184 268 310 0
28 34 184 274 304 0
28 34 184 274 310 0
28 34 184 304 310 0
28 34 190 268 274 0
28 34 190 268 304 0
28 34 190 268 310 0
28 34 190 274 304 0
28 34 190 274 310 0
28 34 190 304 310 0
28 34 268 274 304 0
28 34 268 274 310 0
28 34 268 304 310 0
28 34 274 304 310 0
28 184 190 268 274 0
28 184 190 268 304 0
28 184 190 268 310 0
28 184 190 274 304 0
28 184 190 274 310 0
28 184 190 304 310 0
28 184 268 274 304 0
28 184 268 274 310 0
28 184 268 304 310 0
28 184 274 304 310 0
28 190 268 274 304 0
28 190 268 274 310 0
28 190 268 304 310 0
28 190 274 304 310 0
28 268 274 304 310 0
34 184 190 268 274 0
34 184 190 268 304 0
34 184 190 268 310 0
34 184 190 274 304 0
34 184 190 274 310 0
34 184 190 304 310 0
34 184 268 274 304 0
34 184 268 274 310 0
34 184 268 304 310 0
34 184 274 304 310 0
34 190 268 274 304 0
34 190 268 274 310 0
34 190 268 304 310 0
34 190 274 304 310 0
34 268 274 304 310 0
184 190 268 274 304 0
184 190 268 274 310 0
184 190 268 304 310 0
184 190 274 304 310 0
184 268 274 304 310 0
190 268 274 304 310 0
-29 -35 -185 -191 -269 0
-29 -35 -185 -191 -275 0
-29 -35 -185 -191 -305 0
-29 -35 -185 -191 -311 0
-29 -35 -185 -269 -275 0
-29 -35 -185 -269 -305 0
-29 -35 -185 -269 -311 0
-29 -35 -185 -275 -305 0
-29 -35 -185 -275 -311 0
-29 -35 -185 -305 -311 0
-29 -35 -191 -269 -275 0
-29 -35 -191 -269 -305 0
-29 -35 -191 -269 -311 0
-29 -35 -191 -275 -305 0
-29 -35 -191 -275 -311 0
-29 -35 -191 -305 -311 0
-29 -35 -269 -275 -305 0
-29 -35 -269 -275 -311 0
-29 -35 -269 -305 -311 0
-29 -35 -275 -305 -311 0
-29 -185 -191 -269 -275 0
-29 -185 -191 -269 -305 0
-29 -185 -191 -269 -311 0
-29 -185 -191 -275 -305 0
-29 -185 -191 -275 -311 0
-29 -185 -191 -305 -311 0
-29 -185 -269 -275 -305 0
-29 -185 -269 -275 -311 0
-29 -185 -269 -305 -311 0
-29 -185 -275 -305 -311 0
-29 -191 -269 -275 -305 0
-29 -191 -269 -275 -311 0
-29 -191 -269 -305 -311 0
-29 -191 -275 -305 -311 0
-29 -269 -275 -305 -311 0
-35 -185 -191 -269 -275 0
-35 -185 -191 -269 -305 0
-35 -185 -191 -269 -311 0
-35 -185 -191 -275 -305 0
-35 -185 -191 -275 -311 0
-35 -185 -191 -305 -311 0
-35 -185 -269 -275 -305 0
-35 -185 -269 -275 -311 0
-35 -185 -269 -305 -311 0
-35 -185 -275 -305 -311 0
-35 -191 -269 -275 -305 0
-35 -191 -269 -275 -311 0
-35 -191 -269 -305 -311 0
-35 -191 -275 -305 -311 0
-35 -269 -275 -305 -311 0
-185 -191 -269 -275 -305 0
-185 -191 -269 -275 -311 0
-185 -191 -269 -305 -311 0
-185 -191 -275 -305 -311 0
-185 -269 -275 -305 -311 0
-191 -269 -275 -305 -311 0
29 35 185 191 269 0
29 35 185 191 275 0
29 35 185 191 305 0
29 35 185 191 311 0
29 35 185 269 275 0
29 35 185 269 305 0
29 35 185 269 311 0
29 35 185 275 305 0
29 35 185 275 311 0
29 35 185 305 311 0
29 35 191 269 275 0
29 35 191 269 305 0
29 35 191 269 311 0
29 35 191 275 305 0
29 35 191 275 311 0
29 35 191 305 311 0
29 35 269 275 305 0
29 35 269 275 311 0
29 35 269 305 311 0
29 35 275 305 311 0
29 185 191 269 275 0
29 185 191 269 305 0
29 185 191 269 311 0
29 185 191 275 305 0
29 185 191 275 311 0
29 185 191 305 311 0
29 185 269 275 305 0
29 185 269 275 311 0
29 185 269 305 311 0
29 185 275 305 311 0
29 191 269 275 305 0
29 191 269 275 311 0
29 191 269 305 311 0
29 191 275 305 311 0
29 269 275 305 311 0
35 185 191 269 275 0
35 185 191 269 305 0
35 185 191 269 311 0
35 185 191 275 305 0
35 185 191 275 311 0
35 185 191 305 311 0
35 185 269 275 305 0
35 185 269 275 311 0
35 185 269 305 311 0
35 185 275 305 311 0
35 191 269 275 305 0
35 191 269 275 311 0
35 191 269 305 311 0
35 191 275 305 311 0
35 269 275 305 311 0
185 191 269 275 305 0
185 191 269 275 311 0
185 191 269 305 311 0
185 191 275 305 311 0
185 269 275 305 311 0
191 269 275 305 311 0
-433 -448 -823 0
-433 -448 -838 0
-433 -448 -1033 0
-433 -448 -1048 0
-433 -448 -1123 0
-433 -448 -1138 0
-433 -823 -838 0
-433 -823 -1033 0
-433 -823 -1048 0
-433 -823 -1123 0
-433 -823 -1138 0
-433 -838 -1033 0
-433 -838 -1048 0
-433 -838 -1123 0
-433 -838 -1138 0
-433 -1033 -1048 0
-433 -1033 -1123 0
-433 -1033 -1138 0
-433 -1048 -1123 0
-433 -1048 -1138 0
-433 -1123 -1138 0
-448 -823 -838 0
-448 -823 -1033 0
-448 -823 -1048 0
-448 -823 -1123 0
-448 -823 -1138 0
-448 -838 -1033 0
-448 -838 -1048 0
-448 -838 -1123 0
-448 -838 -1138 0
-448 -1033 -1048 0
-448 -1033 -1123 0
-448 -1033 -1138 0
-448 -1048 -1123 0
-448 -1048 -1138 0
-448 -1123 -1138 0
-823 -838 -1033 0
-823 -838 -1048 0
-823 -838 -1123 0
-823 -838 -1138 0
-823 -1033 -1048 0
-823 -1033 -1123 0
-823 -1033 -1138 0
-823 -1048 -1123 0
-823 -1048 -1138 0
-823 -1123 -1138 0
-838 -1033 -1048 0
-838 -1033 -1123 0
-838 -1033 -1138 0
-838 -1048 -1123 0
-838 -1048 -1138 0
-838 -1123 -1138 0
-1033 -1048 -1123 0
-1033 -1048 -1138 0
-1033 -1123 -1138 0
-1048 -1123 -1138 0
433 448 823 838 1033 1048 1123 0
433 448 823 838 1033 1048 1138 0
433 448 823 838 1033 1123 1138 0
433 448 823 838 1048 1123 1138 0
433 448 823 1033 1048 1123 1138 0
433 448 838 1033 1048 1123 1138 0
433 823 838 1033 1048 1123 1138 0
448 823 838 1033 1048 1123 1138 0
-4 -10 -160 -166 -280 0
-4 -10 -160 -166 -286 0
-4 -10 -160 -166 -328 0
-4 -10 -160 -166 -334 0
-4 -10 -160 -280 -286 0
-4 -10 -160 -280 -328 0
-4 -10 -160 -280 -334 0
-4 -10 -160 -286 -328 0
-4 -10 -160 -286 -334 0
-4 -10 -160 -328 -334 0
-4 -10 -166 -280 -286 0
-4 -10 -166 -280 -328 0
-4 -10 -166 -280 -334 0
-4 -10 -166 -286 -328 0
-4 -10 -166 -286 -334 0
-4 -10 -166 -328 -334 0
-4 -10 -280 -286 -328 0
-4 -10 -280 -286 -334 0
-4 -10 -280 -328 -334 0
-4 -10 -286 -328 -334 0
-4 -160 -166 -280 -286 0
-4 -160 -166 -280 -328 0
-4 -160 -166 -280 -334 0
-4 -160 -166 -286 -328 0
-4 -160 -166 -286 -334 0
-4 -160 -166 -328 -334 0
-4 -160 -280 -286 -328 0
-4 -160 -280 -286 -334 0
-4 -160 -280 -328 -334 0
-4 -160 -286 -328 -334 0
-4 -166 -280 -286 -328 0
-4 -166 -280 -286 -334 0
-4 -166 -280 -328 -334 0
-4 -166 -286 -328 -334 0
-4 -280 -286 -328 -334 0
-10 -160 -166 -280 -286 0
-10 -160 -166 -280 -328 0
-10 -160 -166 -280 -334 0
-10 -160 -166 -286 -328 0
-10 -160 -166 -286 -334 0
-10 -160 -166 -328 -334 0
-10 -160 -280 -286 -328 0
-10 -160 -280 -286 -334 0
-10 -160 -280 -328 -334 0
-10 -160 -286 -328 -334 0
-10 -166 -280 -286 -328 0
-10 -166 -280 -286 -334 0
-10 -166 -280 -328 -334 0
-10 -166 -286 -328 -334 0
-10 -280 -286 -328 -334 0
-160 -166 -280 -286 -328 0
-160 -166 -280 -286 -334 0
-160 -166 -280 -328 -334 0
-160 -166 -286 -328 -334 0
-160 -280 -286 -328 -334 0
-166 -280 -286 -328 -334 0
4 10 160 166 280 0
4 10 160 166 286 0
4 10 160 166 328 0
4 10 160 166 334 0
4 10 160 280 286 0
4 10 160 280 328 0
4 10 160 280 334 0
4 10 160 286 328 0
4 10 160 286 334 0
4 10 160 328 334 0
4 10 166 280 286 0
4 10 166 280 328 0
4 10 166 280 334 0
4 10 166 286 328 0
4 10 166 286 334 0
4 10 166 328 334 0
4 10 280 286 328 0
4 10 280 286 334 0
4 10 280 328 334 0
4 10 286 328 334 0
4 160 166 280 286 0
4 160 166 280 328 0
4 160 166 280 334 0
4 160 166 286 328 0
4 160 166 286 334 0
4 160 166 328 334 0
4 160 280 286 328 0
4 160 280 286 334 0
4 160 280 328 334 0
4 160 286 328 334 0
4 166 280 286 328 0
4 166 280 286 334 0
4 166 280 328 334 0
4 166 286 328 334 0
4 280 286 328 334 0
10 160 166 280 286 0
10 160 166 280 328 0
10 160 166 280 334 0
10 160 166 286 328 0
10 160 166 286 334 0
10 160 166 328 334 0
10 160 280 286 328 0
10 160 280 286 334 0
10 160 280 328 334 0
10 160 286 328 334 0
10 166 280 286 328 0
10 166 280 286 334 0
10 166 280 328 334 0
10 166 286 328 334 0
10 280 286 328 334 0
160 166 280 286 328 0
160 166 280 286 334 0
160 166 280 328 334 0
160 166 286 328 334 0
160 280 286 328 334 0
166 280 286 328 334 0
-5 -11 -161 -167 -281 0
-5 -11 -161 -167 -287 0
-5 -11 -161 -167 -329 0
-5 -11 -161 -167 -335 0
-5 -11 -161 -281 -287 0
-5 -11 -161 -281 -329 0
-5 -11 -161 -281 -335 0
-5 -11 -161 -287 -329 0
-5 -11 -161 -287 -335 0
-5 -11 -161 -329 -335 0
-5 -11 -167 -281 -287 0
-5 -11 -167 -281 -329 0
-5 -11 -167 -281 -335 0
-5 -11 -167 -287 -329 0
-5 -11 -167 -287 -335 0
-5 -11 -167 -329 -335 0
-5 -11 -281 -287 -329 0
-5 -11 -281 -287 -335 0
-5 -11 -281 -329 -335 0
-5 -11 -287 -329 -335 0
-5 -161 -167 -281 -287 0
-5 -161 -167 -281 -329 0
-5 -161 -167 -281 -335 0
-5 -161 -167 -287 -329 0
-5 -161 -167 -287 -335 0
-5 -161 -167 -329 -335 0
-5 -161 -281 -287 -329 0
-5 -161 -281 -287 -335 0
-5 -161 -281 -329 -335 0
-5 -161 -287 -329 -335 0
-5 -167 -281 -287 -329 0
-5 -167 -281 -287 -335 0
-5 -167 -281 -329 -335 0
-5 -167 -287 -329 -335 0
-5 -281 -287 -329 -335 0
-11 -161 -167 -281 -287 0
-11 -161 -167 -281 -329 0
-11 -161 -167 -281 -335 0
-11 -161 -167 -287 -329 0
-11 -161 -167 -287 -335 0
-11 -161 -167 -329 -335 0
-11 -161 -281 -287 -329 0
-11 -161 -281 -287 -335 0
-11 -161 -281 -329 -335 0
-11 -161 -287 -329 -335 0
-11 -167 -281 -287 -329 0
-11 -167 -281 -287 -335 0
-11 -167 -281 -329 -335 0
-11 -167 -287 -329 -335 0
-11 -281 -287 -329 -335 0
-161 -167 -281 -287 -329 0
-161 -167 -281 -287 -335 0
-161 -167 -281 -329 -335 0
-161 -167 -287 -329 -335 0
-161 -281 -287 -329 -335 0
-167 -281 -287 -329 -335 0
5 11 161 167 281 0
5 11 161 167 287 0
5 11 161 167 329 0
5 11 161 167 335 0
5 11 161 281 287 0
5 11 161 281 329 0
5 11 161 281 335 0
5 11 161 287 329 0
5 11 161 287 335 0
5 11 161 329 335 0
5 11 167 281 287 0
5 11 167 281 329 0
5 11 167 281 335 0
5 11 167 287 329 0
5 11 167 287 335 0
5 11 167 329 335 0
5 11 281 287 329 0
5 11 281 287 335 0
5 11 281 329 335 0
5 11 287 329 335 0
5 161 167 281 287 0
5 161 167 281 329 0
5 161 167 281 335 0
5 161 167 287 329 0
5 161 167 287 335 0
5 161 167 329 335 0
5 161 281 287 329 0
5 161 281 287 335 0
5 161 281 329 335 0
5 161 287 329 335 0
5 167 281 287 329 0
5 167 281 287 335 0
5 167 281 329 335 0
5 167 287 329 335 0
5 281 287 329 335 0
11 161 167 281 287 0
11 161 167 281 329 0
11 161 167 281 335 0
11 161 167 287 329 0
11 161 167 287 335 0
11 161 167 329 335 0
11 161 281 287 329 0
11 161 281 287 335 0
11 161 281 329 335 0
11 161 287 329 335 0
11 167 281 287 329 0
11 167 281 287 335 0
11 167 281 329 335 0
11 167 287 329 335 0
11 281 287 329 335 0
161 167 281 287 329 0
161 167 281 287 335 0
161 167 281 329 335 0
161 167 287 329 335 0
161 281 287 329 335 0
167 281 287 329 335 0
-373 -388 -763 0
-373 -388 -778 0
-373 -388 -1063 0
-373 -388 -1078 0
-373 -388 -1183 0
-373 -388 -1198 0
-373 -763 -778 0
-373 -763 -1063 0
-373 -763 -1078 0
-373 -763 -1183 0
-373 -763 -1198 0
-373 -778 -1063 0
-373 -778 -1078 0
-373 -778 -1183 0
-373 -778 -1198 0
-373 -1063 -1078 0
-373 -1063 -1183 0
-373 -1063 -1198 0
-373 -1078 -1183 0
-373 -1078 -1198 0
-373 -1183 -1198 0
-388 -763 -778 0
-388 -763 -1063 0
-388 -763 -1078 0
-388 -763 -1183 0
-388 -763 -1198 0
-388 -778 -1063 0
-388 -778 -1078 0
-388 -778 -1183 0
-388 -778 -1198 0
-388 -1063 -1078 0
-388 -1063 -1183 0
-388 -1063 -1198 0
-388 -1078 -1183 0
-388 -1078 -1198 0
-388 -1183 -1198 0
-763 -778 -1063 0
-763 -778 -1078 0
-763 -778 -1183 0
-763 -778 -1198 0
-763 -1063 -1078 0
-763 -1063 -1183 0
-763 -1063 -1198 0
-763 -1078 -1183 0
-763 -1078 -1198 0
-763 -1183 -1198 0
-778 -1063 -1078 0
-778 -1063 -1183 0
-778 -1063 -1198 0
-778 -1078 -1183 0
-778 -1078 -1198 0
-778 -1183 -1198 0
-1063 -1078 -1183 0
-1063 -1078 -1198 0
-1063 -1183 -1198 0
-1078 -1183 -1198 0
373 388 763 778 1063 1078 1183 0
373 388 763 778 1063 1078 1198 0
373 388 763 778 1063 1183 1198 0
373 388 763 778 1078 1183 1198 0
373 388 763 1063 1078 1183 1198 0
373 388 778 1063 1078 1183 1198 0
373 763 778 1063 1078 1183 1198 0
388 763 778 1063 1078 1183 1198 0
-76 -82 -100 0
-76 -82 -106 0
-76 -100 -106 0
-82 -100 -106 0
76 82 100 0
76 82 106 0
76 100 106 0
82 100 106 0
-77 -83 -101 0
-77 -83 -107 0
-77 -101 -107 0
-83 -101 -107 0
77 83 101 0
77 83 107 0
77 101 107 0
83 101 107 0
-553 -568 0
-553 -613 0
-553 -628 0
-568 -613 0
-568 -628 0
-613 -628 0
553 568 613 628 0
-220 -226 -232 0
-220 -226 -238 0
-220 -232 -238 0
-226 -232 -238 0
220 226 232 0
220 226 238 0
220 232 238 0
226 232 238 0
-222 -228 -234 0
-222 -228 -240 0
-222 -234 -240 0
-228 -234 -240 0
222 228 234 0
222 228 240 0
222 234 240 0
228 234 240 0
-914 -929 0
-914 -944 0
-914 -959 0
-929 -944 0
-929 -959 0
-944 -959 0
914 929 944 959 0
-40 -46 -112 -118 -172 0
-40 -46 -112 -118 -178 0
-40 -46 -112 -118 -316 0
-40 -46 -112 -118 -322 0
-40 -46 -112 -172 -178 0
-40 -46 -112 -172 -316 0
-40 -46 -112 -172 -322 0
-40 -46 -112 -178 -316 0
-40 -46 -112 -178 -322 0
-40 -46 -112 -316 -322 0
-40 -46 -118 -172 -178 0
-40 -46 -118 -172 -316 0
-40 -46 -118 -172 -322 0
-40 -46 -118 -178 -316 0
-40 -46 -118 -178 -322 0
-40 -46 -118 -316 -322 0
-40 -46 -172 -178 -316 0
-40 -46 -172 -178 -322 0
-40 -46 -172 -316 -322 0
-40 -46 -178 -316 -322 0
-40 -112 -118 -172 -178 0
-40 -112 -118 -172 -316 0
-40 -112 -118 -172 -322 0
-40 -112 -118 -178 -316 0
-40 -112 -118 -178 -322 0
-40 -112 -118 -316 -322 0
-40 -112 -172 -178 -316 0
-40 -112 -172 -178 -322 0
-40 -112 -172 -316 -322 0
-40 -112 -178 -316 -322 0
-40 -118 -172 -178 -316 0
-40 -118 -172 -178 -322 0
-40 -118 -172 -316 -322 0
-40 -118 -178 -316 -322 0
-40 -172 -178 -316 -322 0
-46 -112 -118 -172 -178 0
-46 -112 -118 -172 -316 0
-46 -112 -118 -172 -322 0
-46 -112 -118 -178 -316 0
-46 -112 -118 -178 -322 0
-46 -112 -118 -316 -322 0
-46 -112 -172 -178 -316 0
-46 -112 -172 -178 -322 0
-46 -112 -172 -316 -322 0
-46 -112 -178 -316 -322 0
-46 -118 -172 -178 -316 0
-46 -118 -172 -178 -322 0
-46 -118 -172 -316 -322 0
-46 -118 -178 -316 -322 0
-46 -172 -178 -316 -322 0
-112 -118 -172 -178 -316 0
-112 -118 -172 -178 -322 0
-112 -118 -172 -316 -322 0
-112 -118 -178 -316 -322 0
-112 -172 -178 -316 -322 0
-118 -172 -178 -316 -322 0
40 46 112 118 172 0
40 46 112 118 178 0
40 46 112 118 316 0
40 46 112 118 322 0
40 46 112 172 178 0
40 46 112 172 316 0
40 46 112 172 322 0
40 46 112 178 316 0
40 46 112 178 322 0
40 46 112 316 322 0
40 46 118 172 178 0
40 46 118 172 316 0
40 46 118 172 322 0
40 46 118 178 316 0
40 46 118 178 322 0
40 46 118 316 322 0
40 46 172 178 316 0
40 46 172 178 322 0
40 46 172 316 322 0
40 46 178 316 322 0
40 112 118 172 178 0
40 112 118 172 316 0
40 112 118 172 322 0
40 112 118 178 316 0
40 112 118 178 322 0
40 112 118 316 322 0
40 112 172 178 316 0
40 112 172 178 322 0
40 112 172 316 322 0
40 112 178 316 322 0
40 118 172 178 316 0
40 118 172 178 322 0
40 118 172 316 322 0
40 118 178 316 322 0
40 172 178 316 322 0
46 112 118 172 178 0
46 112 118 172 316 0
46 112 118 172 322 0
46 112 118 178 316 0
46 112 118 178 322 0
46 112 118 316 322 0
46 112 172 178 316 0
46 112 172 178 322 0
46 112 172 316 322 0
46 112 178 316 322 0
46 118 172 178 316 0
46 118 172 178 322 0
46 118 172 316 322 0
46 118 178 316 322 0
46 172 178 316 322 0
112 118 172 178 316 0
112 118 172 178 322 0
112 118 172 316 322 0
112 118 178 316 322 0
112 172 178 316 322 0
118 172 178 316 322 0
-42 -48 -114 -120 -174 0
-42 -48 -114 -120 -180 0
-42 -48 -114 -120 -318 0
-42 -48 -114 -120 -324 0
-42 -48 -114 -174 -180 0
-42 -48 -114 -174 -318 0
-42 -48 -114 -174 -324 0
-42 -48 -114 -180 -318 0
-42 -48 -114 -180 -324 0
-42 -48 -114 -318 -324 0
-42 -48 -120 -174 -180 0
-42 -48 -120 -174 -318 0
-42 -48 -120 -174 -324 0
-42 -48 -120 -180 -318 0
-42 -48 -120 -180 -324 0
-42 -48 -120 -318 -324 0
-42 -48 -174 -180 -318 0
-42 -48 -174 -180 -324 0
-42 -48 -174 -318 -324 0
-42 -48 -180 -318 -324 0
-42 -114 -120 -174 -180 0
-42 -114 -120 -174 -318 0
-42 -114 -120 -174 -324 0
-42 -114 -120 -180 -318 0
-42 -114 -120 -180 -324 0
-42 -114 -120 -318 -324 0
-42 -114 -174 -180 -318 0
-42 -114 -174 -180 -324 0
-42 -114 -174 -318 -324 0
-42 -114 -180 -318 -324 0
-42 -120 -174 -180 -318 0
-42 -120 -174 -180 -324 0
-42 -120 -174 -318 -324 0
-42 -120 -180 -318 -324 0
-42 -174 -180 -318 -324 0
-48 -114 -120 -174 -180 0
-48 -114 -120 -174 -318 0
-48 -114 -120 -174 -324 0
-48 -114 -120 -180 -318 0
-48 -114 -120 -180 -324 0
-48 -114 -120 -318 -324 0
-48 -114 -174 -180 -318 0
-48 -114 -174 -180 -324 0
-48 -114 -174 -318 -324 0
-48 -114 -180 -318 -324 0
-48 -120 -174 -180 -318 0
-48 -120 -174 -180 -324 0
-48 -120 -174 -318 -324 0
-48 -120 -180 -318 -324 0
-48 -174 -180 -318 -324 0
-114 -120 -174 -180 -318 0
-114 -120 -174 -180 -324 0
-114 -120 -174 -318 -324 0
-114 -120 -180 -318 -324 0
-114 -174 -180 -318 -324 0
-120 -174 -180 -318 -324 0
42 48 114 120 174 0
42 48 114 120 180 0
42 48 114 120 318 0
42 48 114 120 324 0
42 48 114 174 180 0
42 48 114 174 318 0
42 48 114 174 324 0
42 48 114 180 318 0
42 48 114 180 324 0
42 48 114 318 324 0
42 48 120 174 180 0
42 48 120 174 318 0
42 48 120 174 324 0
42 48 120 180 318 0
42 48 120 180 324 0
42 48 120 318 324 0
42 48 174 180 318 0
42 48 174 180 324 0
42 48 174 318 324 0
42 48 180 318 324 0
42 114 120 174 180 0
42 114 120 174 318 0
42 114 120 174 324 0
42 114 120 180 318 0
42 114 120 180 324 0
42 114 120 318 324 0
42 114 174 180 318 0
42 114 174 180 324 0
42 114 174 318 324 0
42 114 180 318 324 0
42 120 174 180 318 0
42 120 174 180 324 0
42 120 174 318 324 0
42 120 180 318 324 0
42 174 180 318 324 0
48 114 120 174 180 0
48 114 120 174 318 0
48 114 120 174 324 0
48 114 120 180 318 0
48 114 120 180 324 0
48 114 120 318 324 0
48 114 174 180 318 0
48 114 174 180 324 0
48 114 174 318 324 0
48 114 180 318 324 0
48 120 174 180 318 0
48 120 174 180 324 0
48 120 174 318 324 0
48 120 180 318 324 0
48 174 180 318 324 0
114 120 174 180 318 0
114 120 174 180 324 0
114 120 174 318 324 0
114 120 180 318 324 0
114 174 180 318 324 0
120 174 180 318 324 0
-464 -479 -644 0
-464 -479 -659 0
-464 -479 -794 0
-464 -479 -809 0
-464 -479 -1154 0
-464 -479 -1169 0
-464 -644 -659 0
-464 -644 -794 0
-464 -644 -809 0
-464 -644 -1154 0
-464 -644 -1169 0
-464 -659 -794 0
-464 -659 -809 0
-464 -659 -1154 0
-464 -659 -1169 0
-464 -794 -809 0
-464 -794 -1154 0
-464 -794 -1169 0
-464 -809 -1154 0
-464 -809 -1169 0
-464 -1154 -1169 0
-479 -644 -659 0
-479 -644 -794 0
-479 -644 -809 0
-479 -644 -1154 0
-479 -644 -1169 0
-479 -659 -794 0
-479 -659 -809 0
-479 -659 -1154 0
-479 -659 -1169 0
-479 -794 -809 0
-479 -794 -1154 0
-479 -794 -1169 0
-479 -809 -1154 0
-479 -809 -1169 0
-479 -1154 -1169 0
-644 -659 -794 0
-644 -659 -809 0
-644 -659 -1154 0
-644 -659 -1169 0
-644 -794 -809 0
-644 -794 -1154 0
-644 -794 -1169 0
-644 -809 -1154 0
-644 -809 -1169 0
-644 -1154 -1169 0
-659 -794 -809 0
-659 -794 -1154 0
-659 -794 -1169 0
-659 -809 -1154 0
-659 -809 -1169 0
-659 -1154 -1169 0
-794 -809 -1154 0
-794 -809 -1169 0
-794 -1154 -1169 0
-809 -1154 -1169 0
464 479 644 659 794 809 1154 0
464 479 644 659 794 809 1169 0
464 479 644 659 794 1154 1169 0
464 479 644 659 809 1154 1169 0
464 479 644 794 809 1154 1169 0
464 479 659 794 809 1154 1169 0
464 644 659 794 809 1154 1169 0
479 644 659 794 809 1154 1169 0
-64 -70 -136 -142 -196 0
-64 -70 -136 -142 -202 0
-64 -70 -136 -142 -340 0
-64 -70 -136 -142 -346 0
-64 -70 -136 -196 -202 0
-64 -70 -136 -196 -340 0
-64 -70 -136 -196 -346 0
-64 -70 -136 -202 -340 0
-64 -70 -136 -202 -346 0
-64 -70 -136 -340 -346 0
-64 -70 -142 -196 -202 0
-64 -70 -142 -196 -340 0
-64 -70 -142 -196 -346 0
-64 -70 -142 -202 -340 0
-64 -70 -142 -202 -346 0
-64 -70 -142 -340 -346 0
-64 -70 -196 -202 -340 0
-64 -70 -196 -202 -346 0
-64 -70 -196 -340 -346 0
-64 -70 -202 -340 -346 0
-64 -136 -142 -196 -202 0
-64 -136 -142 -196 -340 0
-64 -136 -142 -196 -346 0
-64 -136 -142 -202 -340 0
-64 -136 -142 -202 -346 0
-64 -136 -142 -340 -346 0
-64 -136 -196 -202 -340 0
-64 -136 -196 -202 -346 0
-64 -136 -196 -340 -346 0
-64 -136 -202 -340 -346 0
-64 -142 -196 -202 -340 0
-64 -142 -196 -202 -346 0
-64 -142 -196 -340 -346 0
-64 -142 -202 -340 -346 0
-64 -196 -202 -340 -346 0
-70 -136 -142 -196 -202 0
-70 -136 -142 -196 -340 0
-70 -136 -142 -196 -346 0
-70 -136 -142 -202 -340 0
-70 -136 -142 -202 -346 0
-70 -136 -142 -340 -346 0
-70 -136 -196 -202 -340 0
-70 -136 -196 -202 -346 0
-70 -136 -196 -340 -346 0
-70 -136 -202 -340 -346 0
-70 -142 -196 -202 -340 0
-70 -142 -196 -202 -346 0
-70 -142 -196 -340 -346 0
-70 -142 -202 -340 -346 0
-70 -196 -202 -340 -346 0
-136 -142 -196 -202 -340 0
-136 -142 -196 -202 -346 0
-136 -142 -196 -340 -346 0
-136 -142 -202 -340 -346 0
-136 -196 -202 -340 -346 0
-142 -196 -202 -340 -346 0
64 70 136 142 196 0
64 70 136 142 202 0
64 70 136 142 340 0
64 70 136 142 346 0
64 70 136 196 202 0
64 70 136 196 340 0
64 70 136 196 346 0
64 70 136 202 340 0
64 70 136 202 346 0
64 70 136 340 346 0
64 70 142 196 202 0
64 70 142 196 340 0
64 70 142 196 346 0
64 70 142 202 340 0
64 70 142 202 346 0
64 70 142 340 346 0
64 70 196 202 340 0
64 70 196 202 346 0
64 70 196 340 346 0
64 70 202 340 346 0
64 136 142 196 202 0
64 136 142 196 340 0
64 136 142 196 346 0
64 136 142 202 340 0
64 136 142 202 346 0
64 136 142 340 346 0
64 136 196 202 340 0
64 136 196 202 346 0
64 136 196 340 346 0
64 136 202 340 346 0
64 142 196 202 340 0
64 142 196 202 346 0
64 142 196 340 346 0
64 142 202 340 346 0
64 196 202 340 346 0
70 136 142 196 202 0
70 136 142 196 340 0
70 136 142 196 346 0
70 136 142 202 340 0
70 136 142 202 346 0
70 136 142 340 346 0
70 136 196 202 340 0
70 136 196 202 346 0
70 136 196 340 346 0
70 136 202 340 346 0
70 142 196 202 340 0
70 142 196 202 346 0
70 142 196 340 346 0
70 142 202 340 346 0
70 196 202 340 346 0
136 142 196 202 340 0
136 142 196 202 346 0
136 142 196 340 346 0
136 142 202 340 346 0
136 196 202 340 346 0
142 196 202 340 346 0
-66 -72 -138 -144 -198 0
-66 -72 -138 -144 -204 0
-66 -72 -138 -144 -342 0
-66 -72 -138 -144 -348 0
-66 -72 -138 -198 -204 0
-66 -72 -138 -198 -342 0
-66 -72 -138 -198 -348 0
-66 -72 -138 -204 -342 0
-66 -72 -138 -204 -348 0
-66 -72 -138 -342 -348 0
-66 -72 -144 -198 -204 0
-66 -72 -144 -198 -342 0
-66 -72 -144 -198 -348 0
-66 -72 -144 -204 -342 0
-66 -72 -144 -204 -348 0
-66 -72 -144 -342 -348 0
-66 -72 -198 -204 -342 0
-66 -72 -198 -204 -348 0
-66 -72 -198 -342 -348 0
-66 -72 -204 -342 -348 0
-66 -138 -144 -198 -204 0
-66 -138 -144 -198 -342 0
-66 -138 -144 -198 -348 0
-66 -138 -144 -204 -342 0
-66 -138 -144 -204 -348 0
-66 -138 -144 -342 -348 0
-66 -138 -198 -204 -342 0
-66 -138 -198 -204 -348 0
-66 -138 -198 -342 -348 0
-66 -138 -204 -342 -348 0
-66 -144 -198 -204 -342 0
-66 -144 -198 -204 -348 0
-66 -144 -198 -342 -348 0
-66 -144 -204 -342 -348 0
-66 -198 -204 -342 -348 0
-72 -138 -144 -198 -204 0
-72 -138 -144 -198 -342 0
-72 -138 -144 -198 -348 0
-72 -138 -144 -204 -342 0
-72 -138 -144 -204 -348 0
-72 -138 -144 -342 -348 0
-72 -138 -198 -204 -342 0
-72 -138 -198 -204 -348 0
-72 -138 -198 -342 -348 0
-72 -138 -204 -342 -348 0
-72 -144 -198 -204 -342 0
-72 -144 -198 -204 -348 0
-72 -144 -198 -342 -348 0
-72 -144 -204 -342 -348 0
-72 -198 -204 -342 -348 0
-138 -144 -198 -204 -342 0
-138 -144 -198 -204 -348 0
-138 -144 -198 -342 -348 0
-138 -144 -204 -342 -348 0
-138 -198 -204 -342 -348 0
-144 -198 -204 -342 -348 0
66 72 138 144 198 0
66 72 138 144 204 0
66 72 138 144 342 0
66 72 138 144 348 0
66 72 138 198 204 0
66 72 138 198 342 0
66 72 138 198 348 0
66 72 138 204 342 0
66 72 138 204 348 0
66 72 138 342 348 0
66 72 144 198 204 0
66 72 144 198 342 0
66 72 144 198 348 0
66 72 144 204 342 0
66 72 144 204 348 0
66 72 144 342 348 0
66 72 198 204 342 0
66 72 198 204 348 0
66 72 198 342 348 0
66 72 204 342 348 0
66 138 144 198 204 0
66 138 144 198 342 0
66 138 144 198 348 0
66 138 144 204 342 0
66 138 144 204 348 0
66 138 144 342 348 0
66 138 198 204 342 0
66 138 198 204 348 0
66 138 198 342 348 0
66 138 204 342 348 0
66 144 198 204 342 0
66 144 198 204 348 0
66 144 198 342 348 0
66 144 204 342 348 0
66 198 204 342 348 0
72 138 144 198 204 0
72 138 144 198 342 0
72 138 144 198 348 0
72 138 144 204 342 0
72 138 144 204 348 0
72 138 144 342 348 0
72 138 198 204 342 0
72 138 198 204 348 0
72 138 198 342 348 0
72 138 204 342 348 0
72 144 198 204 342 0
72 144 198 204 348 0
72 144 198 342 348 0
72 144 204 342 348 0
72 198 204 342 348 0
138 144 198 204 342 0
138 144 198 204 348 0
138 144 198 342 348 0
138 144 204 342 348 0
138 198 204 342 348 0
144 198 204 342 348 0
-524 -539 -704 0
-524 -539 -719 0
-524 -539 -854 0
-524 -539 -869 0
-524 -539 -1214 0
-524 -539 -1229 0
-524 -704 -719 0
-524 -704 -854 0
-524 -704 -869 0
-524 -704 -1214 0
-524 -704 -1229 0
-524 -719 -854 0
-524 -719 -869 0
-524 -719 -1214 0
-524 -719 -1229 0
-524 -854 -869 0
-524 -854 -1214 0
-524 -854 -1229 0
-524 -869 -1214 0
-524 -869 -1229 0
-524 -1214 -1229 0
-539 -704 -719 0
-539 -704 -854 0
-539 -704 -869 0
-539 -704 -1214 0
-539 -704 -1229 0
-539 -719 -854 0
-539 -719 -869 0
-539 -719 -1214 0
-539 -719 -1229 0
-539 -854 -869 0
-539 -854 -1214 0
-539 -854 -1229 0
-539 -869 -1214 0
-539 -869 -1229 0
-539 -1214 -1229 0
-704 -719 -854 0
-704 -719 -869 0
-704 -719 -1214 0
-704 -719 -1229 0
-704 -854 -869 0
-704 -854 -1214 0
-704 -854 -1229 0
-704 -869 -1214 0
-704 -869 -1229 0
-704 -1214 -1229 0
-719 -854 -869 0
-719 -854 -1214 0
-719 -854 -1229 0
-719 -869 -1214 0
-719 -869 -1229 0
-719 -1214 -1229 0
-854 -869 -1214 0
-854 -869 -1229 0
-854 -1214 -1229 0
-869 -1214 -1229 0
524 539 704 719 854 869 1214 0
524 539 704 719 854 869 1229 0
524 539 704 719 854 1214 1229 0
524 539 704 719 869 1214 1229 0
524 539 704 854 869 1214 1229 0
524 539 719 854 869 1214 1229 0
524 704 719 854 869 1214 1229 0
539 704 719 854 869 1214 1229 0
-16 -22 -88 -94 -148 0
-16 -22 -88 -94 -154 0
-16 -22 -88 -94 -292 0
-16 -22 -88 -94 -298 0
-16 -22 -88 -148 -154 0
-16 -22 -88 -148 -292 0
-16 -22 -88 -148 -298 0
-16 -22 -88 -154 -292 0
-16 -22 -88 -154 -298 0
-16 -22 -88 -292 -298 0
-16 -22 -94 -148 -154 0
-16 -22 -94 -148 -292 0
-16 -22 -94 -148 -298 0
-16 -22 -94 -154 -292 0
-16 -22 -94 -154 -298 0
-16 -22 -94 -292 -298 0
-16 -22 -148 -154 -292 0
-16 -22 -148 -154 -298 0
-16 -22 -148 -292 -298 0
-16 -22 -154 -292 -298 0
-16 -88 -94 -148 -154 0
-16 -88 -94 -148 -292 0
-16 -88 -94 -148 -298 0
-16 -88 -94 -154 -292 0
-16 -88 -94 -154 -298 0
-16 -88 -94 -292 -298 0
-16 -88 -148 -154 -292 0
-16 -88 -148 -154 -298 0
-16 -88 -148 -292 -298 0
-16 -88 -154 -292 -298 0
-16 -94 -148 -154 -292 0
-16 -94 -148 -154 -298 0
-16 -94 -148 -292 -298 0
-16 -94 -154 -292 -298 0
-16 -148 -154 -292 -298 0
-22 -88 -94 -148 -154 0
-22 -88 -94 -148 -292 0
-22 -88 -94 -148 -298 0
-22 -88 -94 -154 -292 0
-22 -88 -94 -154 -298 0
-22 -88 -94 -292 -298 0
-22 -88 -148 -154 -292 0
-22 -88 -148 -154 -298 0
-22 -88 -148 -292 -298 0
-22 -88 -154 -292 -298 0
-22 -94 -148 -154 -292 0
-22 -94 -148 -154 -298 0
-22 -94 -148 -292 -298 0
-22 -94 -154 -292 -298 0
-22 -148 -154 -292 -298 0
-88 -94 -148 -154 -292 0
-88 -94 -148 -154 -298 0
-88 -94 -148 -292 -298 0
-88 -94 -154 -292 -298 0
-88 -148 -154 -292 -298 0
-94 -148 -154 -292 -298 0
16 22 88 94 148 0
16 22 88 94 154 0
16 22 88 94 292 0
16 22 88 94 298 0
16 22 88 148 154 0
16 22 88 148 292 0
16 22 88 148 298 0
16 22 88 154 292 0
16 22 88 154 298 0
16 22 88 292 298 0
16 22 94 148 154 0
16 22 94 148 292 0
16 22 94 148 298 0
16 22 94 154 292 0
16 22 94 154 298 0
16 22 94 292 298 0
16 22 148 154 292 0
16 22 148 154 298 0
16 22 148 292 298 0
16 22 154 292 298 0
16 88 94 148 154 0
16 88 94 148 292 0
16 88 94 148 298 0
16 88 94 154 292 0
16 88 94 154 298 0
16 88 94 292 298 0
16 88 148 154 292 0
16 88 148 154 298 0
16 88 148 292 298 0
16 88 154 292 298 0
16 94 148 154 292 0
16 94 148 154 298 0
16 94 148 292 298 0
16 94 154 292 298 0
16 148 154 292 298 0
22 88 94 148 154 0
22 88 94 148 292 0
22 88 94 148 298 0
22 88 94 154 292 0
22 88 94 154 298 0
22 88 94 292 298 0
22 88 148 154 292 0
22 88 148 154 298 0
22 88 148 292 298 0
22 88 154 292 298 0
22 94 148 154 292 0
22 94 148 154 298 0
22 94 148 292 298 0
22 94 154 292 298 0
22 148 154 292 298 0
88 94 148 154 292 0
88 94 148 154 298 0
88 94 148 292 298 0
88 94 154 292 298 0
88 148 154 292 298 0
94 148 154 292 298 0
-18 -24 -90 -96 -150 0
-18 -24 -90 -96 -156 0
-18 -24 -90 -96 -294 0
-18 -24 -90 -96 -300 0
-18 -24 -90 -150 -156 0
-18 -24 -90 -150 -294 0
-18 -24 -90 -150 -300 0
-18 -24 -90 -156 -294 0
-18 -24 -90 -156 -300 0
-18 -24 -90 -294 -300 0
-18 -24 -96 -150 -156 0
-18 -24 -96 -150 -294 0
-18 -24 -96 -150 -300 0
-18 -24 -96 -156 -294 0
-18 -24 -96 -156 -300 0
-18 -24 -96 -294 -300 0
-18 -24 -150 -156 -294 0
-18 -24 -150 -156 -300 0
-18 -24 -150 -294 -300 0
-18 -24 -156 -294 -300 0
-18 -90 -96 -150 -156 0
-18 -90 -96 -150 -294 0
-18 -90 -96 -150 -300 0
-18 -90 -96 -156 -294 0
-18 -90 -96 -156 -300 0
-18 -90 -96 -294 -300 0
-18 -90 -150 -156 -294 0
-18 -90 -150 -156 -300 0
-18 -90 -150 -294 -300 0
-18 -90 -156 -294 -300 0
-18 -96 -150 -156 -294 0
-18 -96 -150 -156 -300 0
-18 -96 -150 -294 -300 0
-18 -96 -156 -294 -300 0
-18 -150 -156 -294 -300 0
-24 -90 -96 -150 -156 0
-24 -90 -96 -150 -294 0
-24 -90 -96 -150 -300 0
-24 -90 -96 -156 -294 0
-24 -90 -96 -156 -300 0
-24 -90 -96 -294 -300 0
-24 -90 -150 -156 -294 0
-24 -90 -150 -156 -300 0
-24 -90 -150 -294 -300 0
-24 -90 -156 -294 -300 0
-24 -96 -150 -156 -294 0
-24 -96 -150 -156 -300 0
-24 -96 -150 -294 -300 0
-24 -96 -156 -294 -300 0
-24 -150 -156 -294 -300 0
-90 -96 -150 -156 -294 0
-90 -96 -150 -156 -300 0
-90 -96 -150 -294 -300 0
-90 -96 -156 -294 -300 0
-90 -150 -156 -294 -300 0
-96 -150 -156 -294 -300 0
18 24 90 96 150 0
18 24 90 96 156 0
18 24 90 96 294 0
18 24 90 96 300 0
18 24 90 150 156 0
18 24 90 150 294 0
18 24 90 150 300 0
18 24 90 156 294 0
18 24 90 156 300 0
18 24 90 294 300 0
18 24 96 150 156 0
18 24 96 150 294 0
18 24 96 150 300 0
18 24 96 156 294 0
18 24 96 156 300 0
18 24 96 294 300 0
18 24 150 156 294 0
18 24 150 156 300 0
18 24 150 294 300 0
18 24 156 294 300 0
18 90 96 150 156 0
18 90 96 150 294 0
18 90 96 150 300 0
18 90 96 156 294 0
18 90 96 156 300 0
18 90 96 294 300 0
18 90 150 156 294 0
18 90 150 156 300 0
18 90 150 294 300 0
18 90 156 294 300 0
18 96 150 156 294 0
18 96 150 156 300 0
18 96 150 294 300 0
18 96 156 294 300 0
18 150 156 294 300 0
24 90 96 150 156 0
24 90 96 150 294 0
24 90 96 150 300 0
24 90 96 156 294 0
24 90 96 156 300 0
24 90 96 294 300 0
24 90 150 156 294 0
24 90 150 156 300 0
24 90 150 294 300 0
24 90 156 294 300 0
24 96 150 156 294 0
24 96 150 156 300 0
24 96 150 294 300 0
24 96 156 294 300 0
24 150 156 294 300 0
90 96 150 156 294 0
90 96 150 156 300 0
90 96 150 294 300 0
90 96 156 294 300 0
90 150 156 294 300 0
96 150 156 294 300 0
-404 -419 -584 0
-404 -419 -599 0
-404 -419 -734 0
-404 -419 -749 0
-404 -419 -1094 0
-404 -419 -1109 0
-404 -584 -599 0
-404 -584 -734 0
-404 -584 -749 0
-404 -584 -1094 0
-404 -584 -1109 0
-404 -599 -734 0
-404 -599 -749 0
-404 -599 -1094 0
-404 -599 -1109 0
-404 -734 -749 0
-404 -734 -1094 0
-404 -734 -1109 0
-404 -749 -1094 0
-404 -749 -1109 0
-404 -1094 -1109 0
-419 -584 -599 0
-419 -584 -734 0
-419 -584 -749 0
-419 -584 -1094 0
-419 -584 -1109 0
-419 -599 -734 0
-419 -599 -749 0
-419 -599 -1094 0
-419 -599 -1109 0
-419 -734 -749 0
-419 -734 -1094 0
-419 -734 -1109 0
-419 -749 -1094 0
-419 -749 -1109 0
-419 -1094 -1109 0
-584 -599 -734 0
-584 -599 -749 0
-584 -599 -1094 0
-584 -599 -1109 0
-584 -734 -749 0
-584 -734 -1094 0
-584 -734 -1109 0
-584 -749 -1094 0
-584 -749 -1109 0
-584 -1094 -1109 0
-599 -734 -749 0
-599 -734 -1094 0
-599 -734 -1109 0
-599 -749 -1094 0
-599 -749 -1109 0
-599 -1094 -1109 0
-734 -749 -1094 0
-734 -749 -1109 0
-734 -1094 -1109 0
-749 -1094 -1109 0
404 419 584 599 734 749 1094 0
404 419 584 599 734 749 1109 0
404 419 584 599 734 1094 1109 0
404 419 584 599 749 1094 1109 0
404 419 584 734 749 1094 1109 0
404 419 599 734 749 1094 1109 0
404 584 599 734 749 1094 1109 0
419 584 599 734 749 1094 1109 0
-244 -250 -256 0
-244 -250 -262 0
-244 -256 -262 0
-250 -256 -262 0
244 250 256 0
244 250 262 0
244 256 262 0
250 256 262 0
-246 -252 -258 0
-246 -252 -264 0
-246 -258 -264 0
-252 -258 -264 0
246 252 258 0
246 252 264 0
246 258 264 0
252 258 264 0
-974 -989 0
-974 -1004 0
-974 -1019 0
-989 -1004 0
-989 -1019 0
-1004 -1019 0
974 989 1004 1019 0
-52 -58 -124 -130 -208 0
-52 -58 -124 -130 -214 0
-52 -58 -124 -130 -352 0
-52 -58 -124 -130 -358 0
-52 -58 -124 -208 -214 0
-52 -58 -124 -208 -352 0
-52 -58 -124 -208 -358 0
-52 -58 -124 -214 -352 0
-52 -58 -124 -214 -358 0
-52 -58 -124 -352 -358 0
-52 -58 -130 -208 -214 0
-52 -58 -130 -208 -352 0
-52 -58 -130 -208 -358 0
-52 -58 -130 -214 -352 0
-52 -58 -130 -214 -358 0
-52 -58 -130 -352 -358 0
-52 -58 -208 -214 -352 0
-52 -58 -208 -214 -358 0
-52 -58 -208 -352 -358 0
-52 -58 -214 -352 -358 0
-52 -124 -130 -208 -214 0
-52 -124 -130 -208 -352 0
-52 -124 -130 -208 -358 0
-52 -124 -130 -214 -352 0
-52 -124 -130 -214 -358 0
-52 -124 -130 -352 -358 0
-52 -124 -208 -214 -352 0
-52 -124 -208 -214 -358 0
-52 -124 -208 -352 -358 0
-52 -124 -214 -352 -358 0
-52 -130 -208 -214 -352 0
-52 -130 -208 -214 -358 0
-52 -130 -208 -352 -358 0
-52 -130 -214 -352 -358 0
-52 -208 -214 -352 -358 0
-58 -124 -130 -208 -214 0
-58 -124 -130 -208 -352 0
-58 -124 -130 -208 -358 0
-58 -124 -130 -214 -352 0
-58 -124 -130 -214 -358 0
-58 -124 -130 -352 -358 0
-58 -124 -208 -214 -352 0
-58 -124 -208 -214 -358 0
-58 -124 -208 -352 -358 0
-58 -124 -214 -352 -358 0
-58 -130 -208 -214 -352 0
-58 -130 -208 -214 -358 0
-58 -130 -208 -352 -358 0
-58 -130 -214 -352 -358 0
-58 -208 -214 -352 -358 0
-124 -130 -208 -214 -352 0
-124 -130 -208 -214 -358 0
-124 -130 -208 -352 -358 0
-124 -130 -214 -352 -358 0
-124 -208 -214 -352 -358 0
-130 -208 -214 -352 -358 0
52 58 124 130 208 0
52 58 124 130 214 0
52 58 124 130 352 0
52 58 124 130 358 0
52 58 124 208 214 0
52 58 124 208 352 0
52 58 124 208 358 0
52 58 124 214 352 0
52 58 124 214 358 0
52 58 124 352 358 0
52 58 130 208 214 0
52 58 130 208 352 0
52 58 130 208 358 0
52 58 130 214 352 0
52 58 130 214 358 0
52 58 130 352 358 0
52 58 208 214 352 0
52 58 208 214 358 0
52 58 208 352 358 0
52 58 214 352 358 0
52 124 130 208 214 0
52 124 130 208 352 0
52 124 130 208 358 0
52 124 130 214 352 0
52 124 130 214 358 0
52 124 130 352 358 0
52 124 208 214 352 0
52 124 208 214 358 0
52 124 208 352 358 0
52 124 214 352 358 0
52 130 208 214 352 0
52 130 208 214 358 0
52 130 208 352 358 0
52 130 214 352 358 0
52 208 214 352 358 0
58 124 130 208 214 0
58 124 130 208 352 0
58 124 130 208 358 0
58 124 130 214 352 0
58 124 130 214 358 0
58 124 130 352 358 0
58 124 208 214 352 0
58 124 208 214 358 0
58 124 208 352 358 0
58 124 214 352 358 0
58 130 208 214 352 0
58 130 208 214 358 0
58 130 208 352 358 0
58 130 214 352 358 0
58 208 214 352 358 0
124 130 208 214 352 0
124 130 208 214 358 0
124 130 208 352 358 0
124 130 214 352 358 0
124 208 214 352 358 0
130 208 214 352 358 0
-54 -60 -126 -132 -210 0
-54 -60 -126 -132 -216 0
-54 -60 -126 -132 -354 0
-54 -60 -126 -132 -360 0
-54 -60 -126 -210 -216 0
-54 -60 -126 -210 -354 0
-54 -60 -126 -210 -360 0
-54 -60 -126 -216 -354 0
-54 -60 -126 -216 -360 0
-54 -60 -126 -354 -360 0
-54 -60 -132 -210 -216 0
-54 -60 -132 -210 -354 0
-54 -60 -132 -210 -360 0
-54 -60 -132 -216 -354 0
-54 -60 -132 -216 -360 0
-54 -60 -132 -354 -360 0
-54 -60 -210 -216 -354 0
-54 -60 -210 -216 -360 0
-54 -60 -210 -354 -360 0
-54 -60 -216 -354 -360 0
-54 -126 -132 -210 -216 0
-54 -126 -132 -210 -354 0
-54 -126 -132 -210 -360 0
-54 -126 -132 -216 -354 0
-54 -126 -132 -216 -360 0
-54 -126 -132 -354 -360 0
-54 -126 -210 -216 -354 0
-54 -126 -210 -216 -360 0
-54 -126 -210 -354 -360 0
-54 -126 -216 -354 -360 0
-54 -132 -210 -216 -354 0
-54 -132 -210 -216 -360 0
-54 -132 -210 -354 -360 0
-54 -132 -216 -354 -360 0
-54 -210 -216 -354 -360 0
-60 -126 -132 -210 -216 0
-60 -126 -132 -210 -354 0
-60 -126 -132 -210 -360 0
-60 -126 -132 -216 -354 0
-60 -126 -132 -216 -360 0
-60 -126 -132 -354 -360 0
-60 -126 -210 -216 -354 0
-60 -126 -210 -216 -360 0
-60 -126 -210 -354 -360 0
-60 -126 -216 -354 -360 0
-60 -132 -210 -216 -354 0
-60 -132 -210 -216 -360 0
-60 -132 -210 -354 -360 0
-60 -132 -216 -354 -360 0
-60 -210 -216 -354 -360 0
-126 -132 -210 -216 -354 0
-126 -132 -210 -216 -360 0
-126 -132 -210 -354 -360 0
-126 -132 -216 -354 -360 0
-126 -210 -216 -354 -360 0
-132 -210 -216 -354 -360 0
54 60 126 132 210 0
54 60 126 132 216 0
54 60 126 132 354 0
54 60 126 132 360 0
54 60 126 210 216 0
54 60 126 210 354 0
54 60 126 210 360 0
54 60 126 216 354 0
54 60 126 216 360 0
54 60 126 354 360 0
54 60 132 210 216 0
54 60 132 210 354 0
54 60 132 210 360 0
54 60 132 216 354 0
54 60 132 216 360 0
54 60 132 354 360 0
54 60 210 216 354 0
54 60 210 216 360 0
54 60 210 354 360 0
54 60 216 354 360 0
54 126 132 210 216 0
54 126 132 210 354 0
54 126 132 210 360 0
54 126 132 216 354 0
54 126 132 216 360 0
54 126 132 354 360 0
54 126 210 216 354 0
54 126 210 216 360 0
54 126 210 354 360 0
54 126 216 354 360 0
54 132 210 216 354 0
54 132 210 216 360 0
54 132 210 354 360 0
54 132 216 354 360 0
54 210 216 354 360 0
60 126 132 210 216 0
60 126 132 210 354 0
60 126 132 210 360 0
60 126 132 216 354 0
60 126 132 216 360 0
60 126 132 354 360 0
60 126 210 216 354 0
60 126 210 216 360 0
60 126 210 354 360 0
60 126 216 354 360 0
60 132 210 216 354 0
60 132 210 216 360 0
60 132 210 354 360 0
60 132 216 354 360 0
60 210 216 354 360 0
126 132 210 216 354 0
126 132 210 216 360 0
126 132 210 354 360 0
126 132 216 354 360 0
126 210 216 354 360 0
132 210 216 354 360 0
-494 -509 -674 0
-494 -509 -689 0
-494 -509 -884 0
-494 -509 -899 0
-494 -509 -1244 0
-494 -509 -1259 0
-494 -674 -689 0
-494 -674 -884 0
-494 -674 -899 0
-494 -674 -1244 0
-494 -674 -1259 0
-494 -689 -884 0
-494 -689 -899 0
-494 -689 -1244 0
-494 -689 -1259 0
-494 -884 -899 0
-494 -884 -1244 0
-494 -884 -1259 0
-494 -899 -1244 0
-494 -899 -1259 0
-494 -1244 -1259 0
-509 -674 -689 0
-509 -674 -884 0
-509 -674 -899 0
-509 -674 -1244 0
-509 -674 -1259 0
-509 -689 -884 0
-509 -689 -899 0
-509 -689 -1244 0
-509 -689 -1259 0
-509 -884 -899 0
-509 -884 -1244 0
-509 -884 -1259 0
-509 -899 -1244 0
-509 -899 -1259 0
-509 -1244 -1259 0
-674 -689 -884 0
-674 -689 -899 0
-674 -689 -1244 0
-674 -689 -1259 0
-674 -884 -899 0
-674 -884 -1244 0
-674 -884 -1259 0
-674 -899 -1244 0
-674 -899 -1259 0
-674 -1244 -1259 0
-689 -884 -899 0
-689 -884 -1244 0
-689 -884 -1259 0
-689 -899 -1244 0
-689 -899 -1259 0
-689 -1244 -1259 0
-884 -899 -1244 0
-884 -899 -1259 0
-884 -1244 -1259 0
-899 -1244 -1259 0
494 509 674 689 884 899 1244 0
494 509 674 689 884 899 1259 0
494 509 674 689 884 1244 1259 0
494 509 674 689 899 1244 1259 0
494 509 674 884 899 1244 1259 0
494 509 689 884 899 1244 1259 0
494 674 689 884 899 1244 1259 0
509 674 689 884 899 1244 1259 0
-4 -10 -76 -82 -160 0
-4 -10 -76 -82 -166 0
-4 -10 -76 -82 -304 0
-4 -10 -76 -82 -310 0
-4 -10 -76 -160 -166 0
-4 -10 -76 -160 -304 0
-4 -10 -76 -160 -310 0
-4 -10 -76 -166 -304 0
-4 -10 -76 -166 -310 0
-4 -10 -76 -304 -310 0
-4 -10 -82 -160 -166 0
-4 -10 -82 -160 -304 0
-4 -10 -82 -160 -310 0
-4 -10 -82 -166 -304 0
-4 -10 -82 -166 -310 0
-4 -10 -82 -304 -310 0
-4 -10 -160 -166 -304 0
-4 -10 -160 -166 -310 0
-4 -10 -160 -304 -310 0
-4 -10 -166 -304 -310 0
-4 -76 -82 -160 -166 0
-4 -76 -82 -160 -304 0
-4 -76 -82 -160 -310 0
-4 -76 -82 -166 -304 0
-4 -76 -82 -166 -310 0
-4 -76 -82 -304 -310 0
-4 -76 -160 -166 -304 0
-4 -76 -160 -166 -310 0
-4 -76 -160 -304 -310 0
-4 -76 -166 -304 -310 0
-4 -82 -160 -166 -304 0
-4 -82 -160 -166 -310 0
-4 -82 -160 -304 -310 0
-4 -82 -166 -304 -310 0
-4 -160 -166 -304 -310 0
-10 -76 -82 -160 -166 0
-10 -76 -82 -160 -304 0
-10 -76 -82 -160 -310 0
-10 -76 -82 -166 -304 0
-10 -76 -82 -166 -310 0
-10 -76 -82 -304 -310 0
-10 -76 -160 -166 -304 0
-10 -76 -160 -166 -310 0
-10 -76 -160 -304 -310 0
-10 -76 -166 -304 -310 0
-10 -82 -160 -166 -304 0
-10 -82 -160 -166 -310 0
-10 -82 -160 -304 -310 0
-10 -82 -166 -304 -310 0
-10 -160 -166 -304 -310 0
-76 -82 -160 -166 -304 0
-76 -82 -160 -166 -310 0
-76 -82 -160 -304 -310 0
-76 -82 -166 -304 -310 0
-76 -160 -166 -304 -310 0
-82 -160 -166 -304 -310 0
4 10 76 82 160 0
4 10 76 82 166 0
4 10 76 82 304 0
4 10 76 82 310 0
4 10 76 160 166 0
4 10 76 160 304 0
4 10 76 160 310 0
4 10 76 166 304 0
4 10 76 166 310 0
4 10 76 304 310 0
4 10 82 160 166 0
4 10 82 160 304 0
4 10 82 160 310 0
4 10 82 166 304 0
4 10 82 166 310 0
4 10 82 304 310 0
4 10 160 166 304 0
4 10 160 166 310 0
4 10 160 304 310 0
4 10 166 304 310 0
4 76 82 160 166 0
4 76 82 160 304 0
4 76 82 160 310 0
4 76 82 166 304 0
4 76 82 166 310 0
4 76 82 304 310 0
4 76 160 166 304 0
4 76 160 166 310 0
4 76 160 304 310 0
4 76 166 304 310 0
4 82 160 166 304 0
4 82 160 166 310 0
4 82 160 304 310 0
4 82 166 304 310 0
4 160 166 304 310 0
10 76 82 160 166 0
10 76 82 160 304 0
10 76 82 160 310 0
10 76 82 166 304 0
10 76 82 166 310 0
10 76 82 304 310 0
10 76 160 166 304 0
10 76 160 166 310 0
10 76 160 304 310 0
10 76 166 304 310 0
10 82 160 166 304 0
10 82 160 166 310 0
10 82 160 304 310 0
10 82 166 304 310 0
10 160 166 304 310 0
76 82 160 166 304 0
76 82 160 166 310 0
76 82 160 304 310 0
76 82 166 304 310 0
76 160 166 304 310 0
82 160 166 304 310 0
-6 -12 -78 -84 -162 0
-6 -12 -78 -84 -168 0
-6 -12 -78 -84 -306 0
-6 -12 -78 -84 -312 0
-6 -12 -78 -162 -168 0
-6 -12 -78 -162 -306 0
-6 -12 -78 -162 -312 0
-6 -12 -78 -168 -306 0
-6 -12 -78 -168 -312 0
-6 -12 -78 -306 -312 0
-6 -12 -84 -162 -168 0
-6 -12 -84 -162 -306 0
-6 -12 -84 -162 -312 0
-6 -12 -84 -168 -306 0
-6 -12 -84 -168 -312 0
-6 -12 -84 -306 -312 0
-6 -12 -162 -168 -306 0
-6 -12 -162 -168 -312 0
-6 -12 -162 -306 -312 0
-6 -12 -168 -306 -312 0
-6 -78 -84 -162 -168 0
-6 -78 -84 -162 -306 0
-6 -78 -84 -162 -312 0
-6 -78 -84 -168 -306 0
-6 -78 -84 -168 -312 0
-6 -78 -84 -306 -312 0
-6 -78 -162 -168 -306 0
-6 -78 -162 -168 -312 0
-6 -78 -162 -306 -312 0
-6 -78 -168 -306 -312 0
-6 -84 -162 -168 -306 0
-6 -84 -162 -168 -312 0
-6 -84 -162 -306 -312 0
-6 -84 -168 -306 -312 0
-6 -162 -168 -306 -312 0
-12 -78 -84 -162 -168 0
-12 -78 -84 -162 -306 0
-12 -78 -84 -162 -312 0
-12 -78 -84 -168 -306 0
-12 -78 -84 -168 -312 0
-12 -78 -84 -306 -312 0
-12 -78 -162 -168 -306 0
-12 -78 -162 -168 -312 0
-12 -78 -162 -306 -312 0
-12 -78 -168 -306 -312 0
-12 -84 -162 -168 -306 0
-12 -84 -162 -168 -312 0
-12 -84 -162 -306 -312 0
-12 -84 -168 -306 -312 0
-12 -162 -168 -306 -312 0
-78 -84 -162 -168 -306 0
-78 -84 -162 -168 -312 0
-78 -84 -162 -306 -312 0
-78 -84 -168 -306 -312 0
-78 -162 -168 -306 -312 0
-84 -162 -168 -306 -312 0
6 12 78 84 162 0
6 12 78 84 168 0
6 12 78 84 306 0
6 12 78 84 312 0
6 12 78 162 168 0
6 12 78 162 306 0
6 12 78 162 312 0
6 12 78 168 306 0
6 12 78 168 312 0
6 12 78 306 312 0
6 12 84 162 168 0
6 12 84 162 306 0
6 12 84 162 312 0
6 12 84 168 306 0
6 12 84 168 312 0
6 12 84 306 312 0
6 12 162 168 306 0
6 12 162 168 312 0
6 12 162 306 312 0
6 12 168 306 312 0
6 78 84 162 168 0
6 78 84 162 306 0
6 78 84 162 312 0
6 78 84 168 306 0
6 78 84 168 312 0
6 78 84 306 312 0
6 78 162 168 306 0
6 78 162 168 312 0
6 78 162 306 312 0
6 78 168 306 312 0
6 84 162 168 306 0
6 84 162 168 312 0
6 84 162 306 312 0
6 84 168 306 312 0
6 162 168 306 312 0
12 78 84 162 168 0
12 78 84 162 306 0
12 78 84 162 312 0
12 78 84 168 306 0
12 78 84 168 312 0
12 78 84 306 312 0
12 78 162 168 306 0
12 78 162 168 312 0
12 78 162 306 312 0
12 78 168 306 312 0
12 84 162 168 306 0
12 84 162 168 312 0
12 84 162 306 312 0
12 84 168 306 312 0
12 162 168 306 312 0
78 84 162 168 306 0
78 84 162 168 312 0
78 84 162 306 312 0
78 84 168 306 312 0
78 162 168 306 312 0
84 162 168 306 312 0
-374 -389 -554 0
-374 -389 -569 0
-374 -389 -764 0
-374 -389 -779 0
-374 -389 -1124 0
-374 -389 -1139 0
-374 -554 -569 0
-374 -554 -764 0
-374 -554 -779 0
-374 -554 -1124 0
-374 -554 -1139 0
-374 -569 -764 0
-374 -569 -779 0
-374 -569 -1124 0
-374 -569 -1139 0
-374 -764 -779 0
-374 -764 -1124 0
-374 -764 -1139 0
-374 -779 -1124 0
-374 -779 -1139 0
-374 -1124 -1139 0
-389 -554 -569 0
-389 -554 -764 0
-389 -554 -779 0
-389 -554 -1124 0
-389 -554 -1139 0
-389 -569 -764 0
-389 -569 -779 0
-389 -569 -1124 0
-389 -569 -1139 0
-389 -764 -779 0
-389 -764 -1124 0
-389 -764 -1139 0
-389 -779 -1124 0
-389 -779 -1139 0
-389 -1124 -1139 0
-554 -569 -764 0
-554 -569 -779 0
-554 -569 -1124 0
-554 -569 -1139 0
-554 -764 -779 0
-554 -764 -1124 0
-554 -764 -1139 0
-554 -779 -1124 0
-554 -779 -1139 0
-554 -1124 -1139 0
-569 -764 -779 0
-569 -764 -1124 0
-569 -764 -1139 0
-569 -779 -1124 0
-569 -779 -1139 0
-569 -1124 -1139 0
-764 -779 -1124 0
-764 -779 -1139 0
-764 -1124 -1139 0
-779 -1124 -1139 0
374 389 554 569 764 779 1124 0
374 389 554 569 764 779 1139 0
374 389 554 569 764 1124 1139 0
374 389 554 569 779 1124 1139 0
374 389 554 764 779 1124 1139 0
374 389 569 764 779 1124 1139 0
374 554 569 764 779 1124 1139 0
389 554 569 764 779 1124 1139 0
-28 -34 -100 -106 -184 0
-28 -34 -100 -106 -190 0
-28 -34 -100 -106 -328 0
-28 -34 -100 -106 -334 0
-28 -34 -100 -184 -190 0
-28 -34 -100 -184 -328 0
-28 -34 -100 -184 -334 0
-28 -34 -100 -190 -328 0
-28 -34 -100 -190 -334 0
-28 -34 -100 -328 -334 0
-28 -34 -106 -184 -190 0
-28 -34 -106 -184 -328 0
-28 -34 -106 -184 -334 0
-28 -34 -106 -190 -328 0
-28 -34 -106 -190 -334 0
-28 -34 -106 -328 -334 0
-28 -34 -184 -190 -328 0
-28 -34 -184 -190 -334 0
-28 -34 -184 -328 -334 0
-28 -34 -190 -328 -334 0
-28 -100 -106 -184 -190 0
-28 -100 -106 -184 -328 0
-28 -100 -106 -184 -334 0
-28 -100 -106 -190 -328 0
-28 -100 -106 -190 -334 0
-28 -100 -106 -328 -334 0
-28 -100 -184 -190 -328 0
-28 -100 -184 -190 -334 0
-28 -100 -184 -328 -334 0
-28 -100 -190 -328 -334 0
-28 -106 -184 -190 -328 0
-28 -106 -184 -190 -334 0
-28 -106 -184 -328 -334 0
-28 -106 -190 -328 -334 0
-28 -184 -190 -328 -334 0
-34 -100 -106 -184 -190 0
-34 -100 -106 -184 -328 0
-34 -100 -106 -184 -334 0
-34 -100 -106 -190 -328 0
-34 -100 -106 -190 -334 0
-34 -100 -106 -328 -334 0
-34 -100 -184 -190 -328 0
-34 -100 -184 -190 -334 0
-34 -100 -184 -328 -334 0
-34 -100 -190 -328 -334 0
-34 -106 -184 -190 -328 0
-34 -106 -184 -190 -334 0
-34 -106 -184 -328 -334 0
-34 -106 -190 -328 -334 0
-34 -184 -190 -328 -334 0
-100 -106 -184 -190 -328 0
-100 -106 -184 -190 -334 0
-100 -106 -184 -328 -334 0
-100 -106 -190 -328 -334 0
-100 -184 -190 -328 -334 0
-106 -184 -190 -328 -334 0
28 34 100 106 184 0
28 34 100 106 190 0
28 34 100 106 328 0
28 34 100 106 334 0
28 34 100 184 190 0
28 34 100 184 328 0
28 34 100 184 334 0
28 34 100 190 328 0
28 34 100 190 334 0
28 34 100 328 334 0
28 34 106 184 190 0
28 34 106 184 328 0
28 34 106 184 334 0
28 34 106 190 328 0
28 34 106 190 334 0
28 34 106 328 334 0
28 34 184 190 328 0
28 34 184 190 334 0
28 34 184 328 334 0
28 34 190 328 334 0
28 100 106 184 190 0
28 100 106 184 328 0
28 100 106 184 334 0
28 100 106 190 328 0
28 100 106 190 334 0
28 100 106 328 334 0
28 100 184 190 328 0
28 100 184 190 334 0
28 100 184 328 334 0
28 100 190 328 334 0
28 106 184 190 328 0
28 106 184 190 334 0
28 106 184 328 334 0
28 106 190 328 334 0
28 184 190 328 334 0
34 100 106 184 190 0
34 100 106 184 328 0
34 100 106 184 334 0
34 100 106 190 328 0
34 100 106 190 334 0
34 100 106 328 334 0
34 100 184 190 328 0
34 100 184 190 334 0
34 100 184 328 334 0
34 100 190 328 334 0
34 106 184 190 328 0
34 106 184 190 334 0
34 106 184 328 334 0
34 106 190 328 334 0
34 184 190 328 334 0
100 106 184 190 328 0
100 106 184 190 334 0
100 106 184 328 334 0
100 106 190 328 334 0
100 184 190 328 334 0
106 184 190 328 334 0
-30 -36 -102 -108 -186 0
-30 -36 -102 -108 -192 0
-30 -36 -102 -108 -330 0
-30 -36 -102 -108 -336 0
-30 -36 -102 -186 -192 0
-30 -36 -102 -186 -330 0
-30 -36 -102 -186 -336 0
-30 -36 -102 -192 -330 0
-30 -36 -102 -192 -336 0
-30 -36 -102 -330 -336 0
-30 -36 -108 -186 -192 0
-30 -36 -108 -186 -330 0
-30 -36 -108 -186 -336 0
-30 -36 -108 -192 -330 0
-30 -36 -108 -192 -336 0
-30 -36 -108 -330 -336 0
-30 -36 -186 -192 -330 0
-30 -36 -186 -192 -336 0
-30 -36 -186 -330 -336 0
-30 -36 -192 -330 -336 0
-30 -102 -108 -186 -192 0
-30 -102 -108 -186 -330 0
-30 -102 -108 -186 -336 0
-30 -102 -108 -192 -330 0
-30 -102 -108 -192 -336 0
-30 -102 -108 -330 -336 0
-30 -102 -186 -192 -330 0
-30 -102 -186 -192 -336 0
-30 -102 -186 -330 -336 0
-30 -102 -192 -330 -336 0
-30 -108 -186 -192 -330 0
-30 -108 -186 -192 -336 0
-30 -108 -186 -330 -336 0
-30 -108 -192 -330 -336 0
-30 -186 -192 -330 -336 0
-36 -102 -108 -186 -192 0
-36 -102 -108 -186 -330 0
-36 -102 -108 -186 -336 0
-36 -102 -108 -192 -330 0
-36 -102 -108 -192 -336 0
-36 -102 -108 -330 -336 0
-36 -102 -186 -192 -330 0
-36 -102 -186 -192 -336 0
-36 -102 -186 -330 -336 0
-36 -102 -192 -330 -336 0
-36 -108 -186 -192 -330 0
-36 -108 -186 -192 -336 0
-36 -108 -186 -330 -336 0
-36 -108 -192 -330 -336 0
-36 -186 -192 -330 -336 0
-102 -108 -186 -192 -330 0
-102 -108 -186 -192 -336 0
-102 -108 -186 -330 -336 0
-102 -108 -192 -330 -336 0
-102 -186 -192 -330 -336 0
-108 -186 -192 -330 -336 0
30 36 102 108 186 0
30 36 102 108 192 0
30 36 102 108 330 0
30 36 102 108 336 0
30 36 102 186 192 0
30 36 102 186 330 0
30 36 102 186 336 0
30 36 102 192 330 0
30 36 102 192 336 0
30 36 102 330 336 0
30 36 108 186 192 0
30 36 108 186 330 0
30 36 108 186 336 0
30 36 108 192 330 0
30 36 108 192 336 0
30 36 108 330 336 0
30 36 186 192 330 0
30 36 186 192 336 0
30 36 186 330 336 0
30 36 192 330 336 0
30 102 108 186 192 0
30 102 108 186 330 0
30 102 108 186 336 0
30 102 108 192 330 0
30 102 108 192 336 0
30 102 108 330 336 0
30 102 186 192 330 0
30 102 186 192 336 0
30 102 186 330 336 0
30 102 192 330 336 0
30 108 186 192 330 0
30 108 186 192 336 0
30 108 186 330 336 0
30 108 192 330 336 0
30 186 192 330 336 0
36 102 108 186 192 0
36 102 108 186 330 0
36 102 108 186 336 0
36 102 108 192 330 0
36 102 108 192 336 0
36 102 108 330 336 0
36 102 186 192 330 0
36 102 186 192 336 0
36 102 186 330 336 0
36 102 192 330 336 0
36 108 186 192 330 0
36 108 186 192 336 0
36 108 186 330 336 0
36 108 192 330 336 0
36 186 192 330 336 0
102 108 186 192 330 0
102 108 186 192 336 0
102 108 186 330 336 0
102 108 192 330 336 0
102 186 192 330 336 0
108 186 192 330 336 0
-434 -449 -614 0
-434 -449 -629 0
-434 -449 -824 0
-434 -449 -839 0
-434 -449 -1184 0
-434 -449 -1199 0
-434 -614 -629 0
-434 -614 -824 0
-434 -614 -839 0
-434 -614 -1184 0
-434 -614 -1199 0
-434 -629 -824 0
-434 -629 -839 0
-434 -629 -1184 0
-434 -629 -1199 0
-434 -824 -839 0
-434 -824 -1184 0
-434 -824 -1199 0
-434 -839 -1184 0
-434 -839 -1199 0
-434 -1184 -1199 0
-449 -614 -629 0
-449 -614 -824 0
-449 -614 -839 0
-449 -614 -1184 0
-449 -614 -1199 0
-449 -629 -824 0
-449 -629 -839 0
-449 -629 -1184 0
-449 -629 -1199 0
-449 -824 -839 0
-449 -824 -1184 0
-449 -824 -1199 0
-449 -839 -1184 0
-449 -839 -1199 0
-449 -1184 -1199 0
-614 -629 -824 0
-614 -629 -839 0
-614 -629 -1184 0
-614 -629 -1199 0
-614 -824 -839 0
-614 -824 -1184 0
-614 -824 -1199 0
-614 -839 -1184 0
-614 -839 -1199 0
-614 -1184 -1199 0
-629 -824 -839 0
-629 -824 -1184 0
-629 -824 -1199 0
-629 -839 -1184 0
-629 -839 -1199 0
-629 -1184 -1199 0
-824 -839 -1184 0
-824 -839 -1199 0
-824 -1184 -1199 0
-839 -1184 -1199 0
434 449 614 629 824 839 1184 0
434 449 614 629 824 839 1199 0
434 449 614 629 824 1184 1199 0
434 449 614 629 839 1184 1199 0
434 449 614 824 839 1184 1199 0
434 449 629 824 839 1184 1199 0
434 614 629 824 839 1184 1199 0
449 614 629 824 839 1184 1199 0
-268 -274 -280 0
-268 -274 -286 0
-268 -280 -286 0
-274 -280 -286 0
268 274 280 0
268 274 286 0
268 280 286 0
274 280 286 0
-270 -276 -282 0
-270 -276 -288 0
-270 -282 -288 0
-276 -282 -288 0
270 276 282 0
270 276 288 0
270 282 288 0
276 282 288 0
-1034 -1049 0
-1034 -1064 0
-1034 -1079 0
-1049 -1064 0
-1049 -1079 0
-1064 -1079 0
1034 1049 1064 1079 0
-293 -299 -305 0
-293 -299 -311 0
-293 -305 -311 0
-299 -305 -311 0
293 299 305 0
293 299 311 0
293 305 311 0
299 305 311 0
-294 -300 -306 0
-294 -300 -312 0
-294 -306 -312 0
-300 -306 -312 0
294 300 306 0
294 300 312 0
294 306 312 0
300 306 312 0
-1095 -1110 0
-1095 -1125 0
-1095 -1140 0
-1110 -1125 0
-1110 -1140 0
-1125 -1140 0
1095 1110 1125 1140 0
-29 -35 -113 -119 -185 0
-29 -35 -113 -119 -191 0
-29 -35 -113 -119 -245 0
-29 -35 -113 -119 -251 0
-29 -35 -113 -185 -191 0
-29 -35 -113 -185 -245 0
-29 -35 -113 -185 -251 0
-29 -35 -113 -191 -245 0
-29 -35 -113 -191 -251 0
-29 -35 -113 -245 -251 0
-29 -35 -119 -185 -191 0
-29 -35 -119 -185 -245 0
-29 -35 -119 -185 -251 0
-29 -35 -119 -191 -245 0
-29 -35 -119 -191 -251 0
-29 -35 -119 -245 -251 0
-29 -35 -185 -191 -245 0
-29 -35 -185 -191 -251 0
-29 -35 -185 -245 -251 0
-29 -35 -191 -245 -251 0
-29 -113 -119 -185 -191 0
-29 -113 -119 -185 -245 0
-29 -113 -119 -185 -251 0
-29 -113 -119 -191 -245 0
-29 -113 -119 -191 -251 0
-29 -113 -119 -245 -251 0
-29 -113 -185 -191 -245 0
-29 -113 -185 -191 -251 0
-29 -113 -185 -245 -251 0
-29 -113 -191 -245 -251 0
-29 -119 -185 -191 -245 0
-29 -119 -185 -191 -251 0
-29 -119 -185 -245 -251 0
-29 -119 -191 -245 -251 0
-29 -185 -191 -245 -251 0
-35 -113 -119 -185 -191 0
-35 -113 -119 -185 -245 0
-35 -113 -119 -185 -251 0
-35 -113 -119 -191 -245 0
-35 -113 -119 -191 -251 0
-35 -113 -119 -245 -251 0
-35 -113 -185 -191 -245 0
-35 -113 -185 -191 -251 0
-35 -113 -185 -245 -251 0
-35 -113 -191 -245 -251 0
-35 -119 -185 -191 -245 0
-35 -119 -185 -191 -251 0
-35 -119 -185 -245 -251 0
-35 -119 -191 -245 -251 0
-35 -185 -191 -245 -251 0
-113 -119 -185 -191 -245 0
-113 -119 -185 -191 -251 0
-113 -119 -185 -245 -251 0
-113 -119 -191 -245 -251 0
-113 -185 -191 -245 -251 0
-119 -185 -191 -245 -251 0
29 35 113 119 185 0
29 35 113 119 191 0
29 35 113 119 245 0
29 35 113 119 251 0
29 35 113 185 191 0
29 35 113 185 245 0
29 35 113 185 251 0
29 35 113 191 245 0
29 35 113 191 251 0
29 35 113 245 251 0
29 35 119 185 191 0
29 35 119 185 245 0
29 35 119 185 251 0
29 35 119 191 245 0
29 35 119 191 251 0
29 35 119 245 251 0
29 35 185 191 245 0
29 35 185 191 251 0
29 35 185 245 251 0
29 35 191 245 251 0
29 113 119 185 191 0
29 113 119 185 245 0
29 113 119 185 251 0
29 113 119 191 245 0
29 113 119 191 251 0
29 113 119 245 251 0
29 113 185 191 245 0
29 113 185 191 251 0
29 113 185 245 251 0
29 113 191 245 251 0
29 119 185 191 245 0
29 119 185 191 251 0
29 119 185 245 251 0
29 119 191 245 251 0
29 185 191 245 251 0
35 113 119 185 191 0
35 113 119 185 245 0
35 113 119 185 251 0
35 113 119 191 245 0
35 113 119 191 251 0
35 113 119 245 251 0
35 113 185 191 245 0
35 113 185 191 251 0
35 113 185 245 251 0
35 113 191 245 251 0
35 119 185 191 245 0
35 119 185 191 251 0
35 119 185 245 251 0
35 119 191 245 251 0
35 185 191 245 251 0
113 119 185 191 245 0
113 119 185 191 251 0
113 119 185 245 251 0
113 119 191 245 251 0
113 185 191 245 251 0
119 185 191 245 251 0
-30 -36 -114 -120 -186 0
-30 -36 -114 -120 -192 0
-30 -36 -114 -120 -246 0
-30 -36 -114 -120 -252 0
-30 -36 -114 -186 -192 0
-30 -36 -114 -186 -246 0
-30 -36 -114 -186 -252 0
-30 -36 -114 -192 -246 0
-30 -36 -114 -192 -252 0
-30 -36 -114 -246 -252 0
-30 -36 -120 -186 -192 0
-30 -36 -120 -186 -246 0
-30 -36 -120 -186 -252 0
-30 -36 -120 -192 -246 0
-30 -36 -120 -192 -252 0
-30 -36 -120 -246 -252 0
-30 -36 -186 -192 -246 0
-30 -36 -186 -192 -252 0
-30 -36 -186 -246 -252 0
-30 -36 -192 -246 -252 0
-30 -114 -120 -186 -192 0
-30 -114 -120 -186 -246 0
-30 -114 -120 -186 -252 0
-30 -114 -120 -192 -246 0
-30 -114 -120 -192 -252 0
-30 -114 -120 -246 -252 0
-30 -114 -186 -192 -246 0
-30 -114 -186 -192 -252 0
-30 -114 -186 -246 -252 0
-30 -114 -192 -246 -252 0
-30 -120 -186 -192 -246 0
-30 -120 -186 -192 -252 0
-30 -120 -186 -246 -252 0
-30 -120 -192 -246 -252 0
-30 -186 -192 -246 -252 0
-36 -114 -120 -186 -192 0
-36 -114 -120 -186 -246 0
-36 -114 -120 -186 -252 0
-36 -114 -120 -192 -246 0
-36 -114 -120 -192 -252 0
-36 -114 -120 -246 -252 0
-36 -114 -186 -192 -246 0
-36 -114 -186 -192 -252 0
-36 -114 -186 -246 -252 0
-36 -114 -192 -246 -252 0
-36 -120 -186 -192 -246 0
-36 -120 -186 -192 -252 0
-36 -120 -186 -246 -252 0
-36 -120 -192 -246 -252 0
-36 -186 -192 -246 -252 0
-114 -120 -186 -192 -246 0
-114 -120 -186 -192 -252 0
-114 -120 -186 -246 -252 0
-114 -120 -192 -246 -252 0
-114 -186 -192 -246 -252 0
-120 -186 -192 -246 -252 0
30 36 114 120 186 0
30 36 114 120 192 0
30 36 114 120 246 0
30 36 114 120 252 0
30 36 114 186 192 0
30 36 114 186 246 0
30 36 114 186 252 0
30 36 114 192 246 0
30 36 114 192 252 0
30 36 114 246 252 0
30 36 120 186 192 0
30 36 120 186 246 0
30 36 120 186 252 0
30 36 120 192 246 0
30 36 120 192 252 0
30 36 120 246 252 0
30 36 186 192 246 0
30 36 186 192 252 0
30 36 186 246 252 0
30 36 192 246 252 0
30 114 120 186 192 0
30 114 120 186 246 0
30 114 120 186 252 0
30 114 120 192 246 0
30 114 120 192 252 0
30 114 120 246 252 0
30 114 186 192 246 0
30 114 186 192 252 0
30 114 186 246 252 0
30 114 192 246 252 0
30 120 186 192 246 0
30 120 186 192 252 0
30 120 186 246 252 0
30 120 192 246 252 0
30 186 192 246 252 0
36 114 120 186 192 0
36 114 120 186 246 0
36 114 120 186 252 0
36 114 120 192 246 0
36 114 120 192 252 0
36 114 120 246 252 0
36 114 186 192 246 0
36 114 186 192 252 0
36 114 186 246 252 0
36 114 192 246 252 0
36 120 186 192 246 0
36 120 186 192 252 0
36 120 186 246 252 0
36 120 192 246 252 0
36 186 192 246 252 0
114 120 186 192 246 0
114 120 186 192 252 0
114 120 186 246 252 0
114 120 192 246 252 0
114 186 192 246 252 0
120 186 192 246 252 0
-435 -450 -645 0
-435 -450 -660 0
-435 -450 -825 0
-435 -450 -840 0
-435 -450 -975 0
-435 -450 -990 0
-435 -645 -660 0
-435 -645 -825 0
-435 -645 -840 0
-435 -645 -975 0
-435 -645 -990 0
-435 -660 -825 0
-435 -660 -840 0
-435 -660 -975 0
-435 -660 -990 0
-435 -825 -840 0
-435 -825 -975 0
-435 -825 -990 0
-435 -840 -975 0
-435 -840 -990 0
-435 -975 -990 0
-450 -645 -660 0
-450 -645 -825 0
-450 -645 -840 0
-450 -645 -975 0
-450 -645 -990 0
-450 -660 -825 0
-450 -660 -840 0
-450 -660 -975 0
-450 -660 -990 0
-450 -825 -840 0
-450 -825 -975 0
-450 -825 -990 0
-450 -840 -975 0
-450 -840 -990 0
-450 -975 -990 0
-645 -660 -825 0
-645 -660 -840 0
-645 -660 -975 0
-645 -660 -990 0
-645 -825 -840 0
-645 -825 -975 0
-645 -825 -990 0
-645 -840 -975 0
-645 -840 -990 0
-645 -975 -990 0
-660 -825 -840 0
-660 -825 -975 0
-660 -825 -990 0
-660 -840 -975 0
-660 -840 -990 0
-660 -975 -990 0
-825 -840 -975 0
-825 -840 -990 0
-825 -975 -990 0
-840 -975 -990 0
435 450 645 660 825 840 975 0
435 450 645 660 825 840 990 0
435 450 645 660 825 975 990 0
435 450 645 660 840 975 990 0
435 450 645 825 840 975 990 0
435 450 660 825 840 975 990 0
435 645 660 825 840 975 990 0
450 645 660 825 840 975 990 0
-53 -59 -137 -143 -209 0
-53 -59 -137 -143 -215 0
-53 -59 -137 -143 -269 0
-53 -59 -137 -143 -275 0
-53 -59 -137 -209 -215 0
-53 -59 -137 -209 -269 0
-53 -59 -137 -209 -275 0
-53 -59 -137 -215 -269 0
-53 -59 -137 -215 -275 0
-53 -59 -137 -269 -275 0
-53 -59 -143 -209 -215 0
-53 -59 -143 -209 -269 0
-53 -59 -143 -209 -275 0
-53 -59 -143 -215 -269 0
-53 -59 -143 -215 -275 0
-53 -59 -143 -269 -275 0
-53 -59 -209 -215 -269 0
-53 -59 -209 -215 -275 0
-53 -59 -209 -269 -275 0
-53 -59 -215 -269 -275 0
-53 -137 -143 -209 -215 0
-53 -137 -143 -209 -269 0
-53 -137 -143 -209 -275 0
-53 -137 -143 -215 -269 0
-53 -137 -143 -215 -275 0
-53 -137 -143 -269 -275 0
-53 -137 -209 -215 -269 0
-53 -137 -209 -215 -275 0
-53 -137 -209 -269 -275 0
-53 -137 -215 -269 -275 0
-53 -143 -209 -215 -269 0
-53 -143 -209 -215 -275 0
-53 -143 -209 -269 -275 0
-53 -143 -215 -269 -275 0
-53 -209 -215 -269 -275 0
-59 -137 -143 -209 -215 0
-59 -137 -143 -209 -269 0
-59 -137 -143 -209 -275 0
-59 -137 -143 -215 -269 0
-59 -137 -143 -215 -275 0
-59 -137 -143 -269 -275 0
-59 -137 -209 -215 -269 0
-59 -137 -209 -215 -275 0
-59 -137 -209 -269 -275 0
-59 -137 -215 -269 -275 0
-59 -143 -209 -215 -269 0
-59 -143 -209 -215 -275 0
-59 -143 -209 -269 -275 0
-59 -143 -215 -269 -275 0
-59 -209 -215 -269 -275 0
-137 -143 -209 -215 -269 0
-137 -143 -209 -215 -275 0
-137 -143 -209 -269 -275 0
-137 -143 -215 -269 -275 0
-137 -209 -215 -269 -275 0
-143 -209 -215 -269 -275 0
53 59 137 143 209 0
53 59 137 143 215 0
53 59 137 143 269 0
53 59 137 143 275 0
53 59 137 209 215 0
53 59 137 209 269 0
53 59 137 209 275 0
53 59 137 215 269 0
53 59 137 215 275 0
53 59 137 269 275 0
53 59 143 209 215 0
53 59 143 209 269 0
53 59 143 209 275 0
53 59 143 215 269 0
53 59 143 215 275 0
53 59 143 269 275 0
53 59 209 215 269 0
53 59 209 215 275 0
53 59 209 269 275 0
53 59 215 269 275 0
53 137 143 209 215 0
53 137 143 209 269 0
53 137 143 209 275 0
53 137 143 215 269 0
53 137 143 215 275 0
53 137 143 269 275 0
53 137 209 215 269 0
53 137 209 215 275 0
53 137 209 269 275 0
53 137 215 269 275 0
53 143 209 215 269 0
53 143 209 215 275 0
53 143 209 269 275 0
53 143 215 269 275 0
53 209 215 269 275 0
59 137 143 209 215 0
59 137 143 209 269 0
59 137 143 209 275 0
59 137 143 215 269 0
59 137 143 215 275 0
59 137 143 269 275 0
59 137 209 215 269 0
59 137 209 215 275 0
59 137 209 269 275 0
59 137 215 269 275 0
59 143 209 215 269 0
59 143 209 215 275 0
59 143 209 269 275 0
59 143 215 269 275 0
59 209 215 269 275 0
137 143 209 215 269 0
137 143 209 215 275 0
137 143 209 269 275 0
137 143 215 269 275 0
137 209 215 269 275 0
143 209 215 269 275 0
-54 -60 -138 -144 -210 0
-54 -60 -138 -144 -216 0
-54 -60 -138 -144 -270 0
-54 -60 -138 -144 -276 0
-54 -60 -138 -210 -216 0
-54 -60 -138 -210 -270 0
-54 -60 -138 -210 -276 0
-54 -60 -138 -216 -270 0
-54 -60 -138 -216 -276 0
-54 -60 -138 -270 -276 0
-54 -60 -144 -210 -216 0
-54 -60 -144 -210 -270 0
-54 -60 -144 -210 -276 0
-54 -60 -144 -216 -270 0
-54 -60 -144 -216 -276 0
-54 -60 -144 -270 -276 0
-54 -60 -210 -216 -270 0
-54 -60 -210 -216 -276 0
-54 -60 -210 -270 -276 0
-54 -60 -216 -270 -276 0
-54 -138 -144 -210 -216 0
-54 -138 -144 -210 -270 0
-54 -138 -144 -210 -276 0
-54 -138 -144 -216 -270 0
-54 -138 -144 -216 -276 0
-54 -138 -144 -270 -276 0
-54 -138 -210 -216 -270 0
-54 -138 -210 -216 -276 0
-54 -138 -210 -270 -276 0
-54 -138 -216 -270 -276 0
-54 -144 -210 -216 -270 0
-54 -144 -210 -216 -276 0
-54 -144 -210 -270 -276 0
-54 -144 -216 -270 -276 0
-54 -210 -216 -270 -276 0
-60 -138 -144 -210 -216 0
-60 -138 -144 -210 -270 0
-60 -138 -144 -210 -276 0
-60 -138 -144 -216 -270 0
-60 -138 -144 -216 -276 0
-60 -138 -144 -270 -276 0
-60 -138 -210 -216 -270 0
-60 -138 -210 -216 -276 0
-60 -138 -210 -270 -276 0
-60 -138 -216 -270 -276 0
-60 -144 -210 -216 -270 0
-60 -144 -210 -216 -276 0
-60 -144 -210 -270 -276 0
-60 -144 -216 -270 -276 0
-60 -210 -216 -270 -276 0
-138 -144 -210 -216 -270 0
-138 -144 -210 -216 -276 0
-138 -144 -210 -270 -276 0
-138 -144 -216 -270 -276 0
-138 -210 -216 -270 -276 0
-144 -210 -216 -270 -276 0
54 60 138 144 210 0
54 60 138 144 216 0
54 60 138 144 270 0
54 60 138 144 276 0
54 60 138 210 216 0
54 60 138 210 270 0
54 60 138 210 276 0
54 60 138 216 270 0
54 60 138 216 276 0
54 60 138 270 276 0
54 60 144 210 216 0
54 60 144 210 270 0
54 60 144 210 276 0
54 60 144 216 270 0
54 60 144 216 276 0
54 60 144 270 276 0
54 60 210 216 270 0
54 60 210 216 276 0
54 60 210 270 276 0
54 60 216 270 276 0
54 138 144 210 216 0
54 138 144 210 270 0
54 138 144 210 276 0
54 138 144 216 270 0
54 138 144 216 276 0
54 138 144 270 276 0
54 138 210 216 270 0
54 138 210 216 276 0
54 138 210 270 276 0
54 138 216 270 276 0
54 144 210 216 270 0
54 144 210 216 276 0
54 144 210 270 276 0
54 144 216 270 276 0
54 210 216 270 276 0
60 138 144 210 216 0
60 138 144 210 270 0
60 138 144 210 276 0
60 138 144 216 270 0
60 138 144 216 276 0
60 138 144 270 276 0
60 138 210 216 270 0
60 138 210 216 276 0
60 138 210 270 276 0
60 138 216 270 276 0
60 144 210 216 270 0
60 144 210 216 276 0
60 144 210 270 276 0
60 144 216 270 276 0
60 210 216 270 276 0
138 144 210 216 270 0
138 144 210 216 276 0
138 144 210 270 276 0
138 144 216 270 276 0
138 210 216 270 276 0
144 210 216 270 276 0
-495 -510 -705 0
-495 -510 -720 0
-495 -510 -885 0
-495 -510 -900 0
-495 -510 -1035 0
-495 -510 -1050 0
-495 -705 -720 0
-495 -705 -885 0
-495 -705 -900 0
-495 -705 -1035 0
-495 -705 -1050 0
-495 -720 -885 0
-495 -720 -900 0
-495 -720 -1035 0
-495 -720 -1050 0
-495 -885 -900 0
-495 -885 -1035 0
-495 -885 -1050 0
-495 -900 -1035 0
-495 -900 -1050 0
-495 -1035 -1050 0
-510 -705 -720 0
-510 -705 -885 0
-510 -705 -900 0
-510 -705 -1035 0
-510 -705 -1050 0
-510 -720 -885 0
-510 -720 -900 0
-510 -720 -1035 0
-510 -720 -1050 0
-510 -885 -900 0
-510 -885 -1035 0
-510 -885 -1050 0
-510 -900 -1035 0
-510 -900 -1050 0
-510 -1035 -1050 0
-705 -720 -885 0
-705 -720 -900 0
-705 -720 -1035 0
-705 -720 -1050 0
-705 -885 -900 0
-705 -885 -1035 0
-705 -885 -1050 0
-705 -900 -1035 0
-705 -900 -1050 0
-705 -1035 -1050 0
-720 -885 -900 0
-720 -885 -1035 0
-720 -885 -1050 0
-720 -900 -1035 0
-720 -900 -1050 0
-720 -1035 -1050 0
-885 -900 -1035 0
-885 -900 -1050 0
-885 -1035 -1050 0
-900 -1035 -1050 0
495 510 705 720 885 900 1035 0
495 510 705 720 885 900 1050 0
495 510 705 720 885 1035 1050 0
495 510 705 720 900 1035 1050 0
495 510 705 885 900 1035 1050 0
495 510 720 885 900 1035 1050 0
495 705 720 885 900 1035 1050 0
510 705 720 885 900 1035 1050 0
-5 -11 -89 -95 -161 0
-5 -11 -89 -95 -167 0
-5 -11 -89 -95 -221 0
-5 -11 -89 -95 -227 0
-5 -11 -89 -161 -167 0
-5 -11 -89 -161 -221 0
-5 -11 -89 -161 -227 0
-5 -11 -89 -167 -221 0
-5 -11 -89 -167 -227 0
-5 -11 -89 -221 -227 0
-5 -11 -95 -161 -167 0
-5 -11 -95 -161 -221 0
-5 -11 -95 -161 -227 0
-5 -11 -95 -167 -221 0
-5 -11 -95 -167 -227 0
-5 -11 -95 -221 -227 0
-5 -11 -161 -167 -221 0
-5 -11 -161 -167 -227 0
-5 -11 -161 -221 -227 0
-5 -11 -167 -221 -227 0
-5 -89 -95 -161 -167 0
-5 -89 -95 -161 -221 0
-5 -89 -95 -161 -227 0
-5 -89 -95 -167 -221 0
-5 -89 -95 -167 -227 0
-5 -89 -95 -221 -227 0
-5 -89 -161 -167 -221 0
-5 -89 -161 -167 -227 0
-5 -89 -161 -221 -227 0
-5 -89 -167 -221 -227 0
-5 -95 -161 -167 -221 0
-5 -95 -161 -167 -227 0
-5 -95 -161 -221 -227 0
-5 -95 -167 -221 -227 0
-5 -161 -167 -221 -227 0
-11 -89 -95 -161 -167 0
-11 -89 -95 -161 -221 0
-11 -89 -95 -161 -227 0
-11 -89 -95 -167 -221 0
-11 -89 -95 -167 -227 0
-11 -89 -95 -221 -227 0
-11 -89 -161 -167 -221 0
-11 -89 -161 -167 -227 0
-11 -89 -161 -221 -227 0
-11 -89 -167 -221 -227 0
-11 -95 -161 -167 -221 0
-11 -95 -161 -167 -227 0
-11 -95 -161 -221 -227 0
-11 -95 -167 -221 -227 0
-11 -161 -167 -221 -227 0
-89 -95 -161 -167 -221 0
-89 -95 -161 -167 -227 0
-89 -95 -161 -221 -227 0
-89 -95 -167 -221 -227 0
-89 -161 -167 -221 -227 0
-95 -161 -167 -221 -227 0
5 11 89 95 161 0
5 11 89 95 167 0
5 11 89 95 221 0
5 11 89 95 227 0
5 11 89 161 167 0
5 11 89 161 221 0
5 11 89 161 227 0
5 11 89 167 221 0
5 11 89 167 227 0
5 11 89 221 227 0
5 11 95 161 167 0
5 11 95 161 221 0
5 11 95 161 227 0
5 11 95 167 221 0
5 11 95 167 227 0
5 11 95 221 227 0
5 11 161 167 221 0
5 11 161 167 227 0
5 11 161 221 227 0
5 11 167 221 227 0
5 89 95 161 167 0
5 89 95 161 221 0
5 89 95 161 227 0
5 89 95 167 221 0
5 89 95 167 227 0
5 89 95 221 227 0
5 89 161 167 221 0
5 89 161 167 227 0
5 89 161 221 227 0
5 89 167 221 227 0
5 95 161 167 221 0
5 95 161 167 227 0
5 95 161 221 227 0
5 95 167 221 227 0
5 161 167 221 227 0
11 89 95 161 167 0
11 89 95 161 221 0
11 89 95 161 227 0
11 89 95 167 221 0
11 89 95 167 227 0
11 89 95 221 227 0
11 89 161 167 221 0
11 89 161 167 227 0
11 89 161 221 227 0
11 89 167 221 227 0
11 95 161 167 221 0
11 95 161 167 227 0
11 95 161 221 227 0
11 95 167 221 227 0
11 161 167 221 227 0
89 95 161 167 221 0
89 95 161 167 227 0
89 95 161 221 227 0
89 95 167 221 227 0
89 161 167 221 227 0
95 161 167 221 227 0
-6 -12 -90 -96 -162 0
-6 -12 -90 -96 -168 0
-6 -12 -90 -96 -222 0
-6 -12 -90 -96 -228 0
-6 -12 -90 -162 -168 0
-6 -12 -90 -162 -222 0
-6 -12 -90 -162 -228 0
-6 -12 -90 -168 -222 0
-6 -12 -90 -168 -228 0
-6 -12 -90 -222 -228 0
-6 -12 -96 -162 -168 0
-6 -12 -96 -162 -222 0
-6 -12 -96 -162 -228 0
-6 -12 -96 -168 -222 0
-6 -12 -96 -168 -228 0
-6 -12 -96 -222 -228 0
-6 -12 -162 -168 -222 0
-6 -12 -162 -168 -228 0
-6 -12 -162 -222 -228 0
-6 -12 -168 -222 -228 0
-6 -90 -96 -162 -168 0
-6 -90 -96 -162 -222 0
-6 -90 -96 -162 -228 0
-6 -90 -96 -168 -222 0
-6 -90 -96 -168 -228 0
-6 -90 -96 -222 -228 0
-6 -90 -162 -168 -222 0
-6 -90 -162 -168 -228 0
-6 -90 -162 -222 -228 0
-6 -90 -168 -222 -228 0
-6 -96 -162 -168 -222 0
-6 -96 -162 -168 -228 0
-6 -96 -162 -222 -228 0
-6 -96 -168 -222 -228 0
-6 -162 -168 -222 -228 0
-12 -90 -96 -162 -168 0
-12 -90 -96 -162 -222 0
-12 -90 -96 -162 -228 0
-12 -90 -96 -168 -222 0
-12 -90 -96 -168 -228 0
-12 -90 -96 -222 -228 0
-12 -90 -162 -168 -222 0
-12 -90 -162 -168 -228 0
-12 -90 -162 -222 -228 0
-12 -90 -168 -222 -228 0
-12 -96 -162 -168 -222 0
-12 -96 -162 -168 -228 0
-12 -96 -162 -222 -228 0
-12 -96 -168 -222 -228 0
-12 -162 -168 -222 -228 0
-90 -96 -162 -168 -222 0
-90 -96 -162 -168 -228 0
-90 -96 -162 -222 -228 0
-90 -96 -168 -222 -228 0
-90 -162 -168 -222 -228 0
-96 -162 -168 -222 -228 0
6 12 90 96 162 0
6 12 90 96 168 0
6 12 90 96 222 0
6 12 90 96 228 0
6 12 90 162 168 0
6 12 90 162 222 0
6 12 90 162 228 0
6 12 90 168 222 0
6 12 90 168 228 0
6 12 90 222 228 0
6 12 96 162 168 0
6 12 96 162 222 0
6 12 96 162 228 0
6 12 96 168 222 0
6 12 96 168 228 0
6 12 96 222 228 0
6 12 162 168 222 0
6 12 162 168 228 0
6 12 162 222 228 0
6 12 168 222 228 0
6 90 96 162 168 0
6 90 96 162 222 0
6 90 96 162 228 0
6 90 96 168 222 0
6 90 96 168 228 0
6 90 96 222 228 0
6 90 162 168 222 0
6 90 162 168 228 0
6 90 162 222 228 0
6 90 168 222 228 0
6 96 162 168 222 0
6 96 162 168 228 0
6 96 162 222 228 0
6 96 168 222 228 0
6 162 168 222 228 0
12 90 96 162 168 0
12 90 96 162 222 0
12 90 96 162 228 0
12 90 96 168 222 0
12 90 96 168 228 0
12 90 96 222 228 0
12 90 162 168 222 0
12 90 162 168 228 0
12 90 162 222 228 0
12 90 168 222 228 0
12 96 162 168 222 0
12 96 162 168 228 0
12 96 162 222 228 0
12 96 168 222 228 0
12 162 168 222 228 0
90 96 162 168 222 0
90 96 162 168 228 0
90 96 162 222 228 0
90 96 168 222 228 0
90 162 168 222 228 0
96 162 168 222 228 0
-375 -390 -585 0
-375 -390 -600 0
-375 -390 -765 0
-375 -390 -780 0
-375 -390 -915 0
-375 -390 -930 0
-375 -585 -600 0
-375 -585 -765 0
-375 -585 -780 0
-375 -585 -915 0
-375 -585 -930 0
-375 -600 -765 0
-375 -600 -780 0
-375 -600 -915 0
-375 -600 -930 0
-375 -765 -780 0
-375 -765 -915 0
-375 -765 -930 0
-375 -780 -915 0
-375 -780 -930 0
-375 -915 -930 0
-390 -585 -600 0
-390 -585 -765 0
-390 -585 -780 0
-390 -585 -915 0
-390 -585 -930 0
-390 -600 -765 0
-390 -600 -780 0
-390 -600 -915 0
-390 -600 -930 0
-390 -765 -780 0
-390 -765 -915 0
-390 -765 -930 0
-390 -780 -915 0
-390 -780 -930 0
-390 -915 -930 0
-585 -600 -765 0
-585 -600 -780 0
-585 -600 -915 0
-585 -600 -930 0
-585 -765 -780 0
-585 -765 -915 0
-585 -765 -930 0
-585 -780 -915 0
-585 -780 -930 0
-585 -915 -930 0
-600 -765 -780 0
-600 -765 -915 0
-600 -765 -930 0
-600 -780 -915 0
-600 -780 -930 0
-600 -915 -930 0
-765 -780 -915 0
-765 -780 -930 0
-765 -915 -930 0
-780 -915 -930 0
375 390 585 600 765 780 915 0
375 390 585 600 765 780 930 0
375 390 585 600 765 915 930 0
375 390 585 600 780 915 930 0
375 390 585 765 780 915 930 0
375 390 600 765 780 915 930 0
375 585 600 765 780 915 930 0
390 585 600 765 780 915 930 0
-317 -323 -329 0
-317 -323 -335 0
-317 -329 -335 0
-323 -329 -335 0
317 323 329 0
317 323 335 0
317 329 335 0
323 329 335 0
-318 -324 -330 0
-318 -324 -336 0
-318 -330 -336 0
-324 -330 -336 0
318 324 330 0
318 324 336 0
318 330 336 0
324 330 336 0
-1155 -1170 0
-1155 -1185 0
-1155 -1200 0
-1170 -1185 0
-1170 -1200 0
-1185 -1200 0
1155 1170 1185 1200 0
-65 -71 -125 -131 -197 0
-65 -71 -125 -131 -203 0
-65 -71 -125 -131 -281 0
-65 -71 -125 -131 -287 0
-65 -71 -125 -197 -203 0
-65 -71 -125 -197 -281 0
-65 -71 -125 -197 -287 0
-65 -71 -125 -203 -281 0
-65 -71 -125 -203 -287 0
-65 -71 -125 -281 -287 0
-65 -71 -131 -197 -203 0
-65 -71 -131 -197 -281 0
-65 -71 -131 -197 -287 0
-65 -71 -131 -203 -281 0
-65 -71 -131 -203 -287 0
-65 -71 -131 -281 -287 0
-65 -71 -197 -203 -281 0
-65 -71 -197 -203 -287 0
-65 -71 -197 -281 -287 0
-65 -71 -203 -281 -287 0
-65 -125 -131 -197 -203 0
-65 -125 -131 -197 -281 0
-65 -125 -131 -197 -287 0
-65 -125 -131 -203 -281 0
-65 -125 -131 -203 -287 0
-65 -125 -131 -281 -287 0
-65 -125 -197 -203 -281 0
-65 -125 -197 -203 -287 0
-65 -125 -197 -281 -287 0
-65 -125 -203 -281 -287 0
-65 -131 -197 -203 -281 0
-65 -131 -197 -203 -287 0
-65 -131 -197 -281 -287 0
-65 -131 -203 -281 -287 0
-65 -197 -203 -281 -287 0
-71 -125 -131 -197 -203 0
-71 -125 -131 -197 -281 0
-71 -125 -131 -197 -287 0
-71 -125 -131 -203 -281 0
-71 -125 -131 -203 -287 0
-71 -125 -131 -281 -287 0
-71 -125 -197 -203 -281 0
-71 -125 -197 -203 -287 0
-71 -125 -197 -281 -287 0
-71 -125 -203 -281 -287 0
-71 -131 -197 -203 -281 0
-71 -131 -197 -203 -287 0
-71 -131 -197 -281 -287 0
-71 -131 -203 -281 -287 0
-71 -197 -203 -281 -287 0
-125 -131 -197 -203 -281 0
-125 -131 -197 -203 -287 0
-125 -131 -197 -281 -287 0
-125 -131 -203 -281 -287 0
-125 -197 -203 -281 -287 0
-131 -197 -203 -281 -287 0
65 71 125 131 197 0
65 71 125 131 203 0
65 71 125 131 281 0
65 71 125 131 287 0
65 71 125 197 203 0
65 71 125 197 281 0
65 71 125 197 287 0
65 71 125 203 281 0
65 71 125 203 287 0
65 71 125 281 287 0
65 71 131 197 203 0
65 71 131 197 281 0
65 71 131 197 287 0
65 71 131 203 281 0
65 71 131 203 287 0
65 71 131 281 287 0
65 71 197 203 281 0
65 71 197 203 287 0
65 71 197 281 287 0
65 71 203 281 287 0
65 125 131 197 203 0
65 125 131 197 281 0
65 125 131 197 287 0
65 125 131 203 281 0
65 125 131 203 287 0
65 125 131 281 287 0
65 125 197 203 281 0
65 125 197 203 287 0
65 125 197 281 287 0
65 125 203 281 287 0
65 131 197 203 281 0
65 131 197 203 287 0
65 131 197 281 287 0
65 131 203 281 287 0
65 197 203 281 287 0
71 125 131 197 203 0
71 125 131 197 281 0
71 125 131 197 287 0
71 125 131 203 281 0
71 125 131 203 287 0
71 125 131 281 287 0
71 125 197 203 281 0
71 125 197 203 287 0
71 125 197 281 287 0
71 125 203 281 287 0
71 131 197 203 281 0
71 131 197 203 287 0
71 131 197 281 287 0
71 131 203 281 287 0
71 197 203 281 287 0
125 131 197 203 281 0
125 131 197 203 287 0
125 131 197 281 287 0
125 131 203 281 287 0
125 197 203 281 287 0
131 197 203 281 287 0
-66 -72 -126 -132 -198 0
-66 -72 -126 -132 -204 0
-66 -72 -126 -132 -282 0
-66 -72 -126 -132 -288 0
-66 -72 -126 -198 -204 0
-66 -72 -126 -198 -282 0
-66 -72 -126 -198 -288 0
-66 -72 -126 -204 -282 0
-66 -72 -126 -204 -288 0
-66 -72 -126 -282 -288 0
-66 -72 -132 -198 -204 0
-66 -72 -132 -198 -282 0
-66 -72 -132 -198 -288 0
-66 -72 -132 -204 -282 0
-66 -72 -132 -204 -288 0
-66 -72 -132 -282 -288 0
-66 -72 -198 -204 -282 0
-66 -72 -198 -204 -288 0
-66 -72 -198 -282 -288 0
-66 -72 -204 -282 -288 0
-66 -126 -132 -198 -204 0
-66 -126 -132 -198 -282 0
-66 -126 -132 -198 -288 0
-66 -126 -132 -204 -282 0
-66 -126 -132 -204 -288 0
-66 -126 -132 -282 -288 0
-66 -126 -198 -204 -282 0
-66 -126 -198 -204 -288 0
-66 -126 -198 -282 -288 0
-66 -126 -204 -282 -288 0
-66 -132 -198 -204 -282 0
-66 -132 -198 -204 -288 0
-66 -132 -198 -282 -288 0
-66 -132 -204 -282 -288 0
-66 -198 -204 -282 -288 0
-72 -126 -132 -198 -204 0
-72 -126 -132 -198 -282 0
-72 -126 -132 -198 -288 0
-72 -126 -132 -204 -282 0
-72 -126 -132 -204 -288 0
-72 -126 -132 -282 -288 0
-72 -126 -198 -204 -282 0
-72 -126 -198 -204 -288 0
-72 -126 -198 -282 -288 0
-72 -126 -204 -282 -288 0
-72 -132 -198 -204 -282 0
-72 -132 -198 -204 -288 0
-72 -132 -198 -282 -288 0
-72 -132 -204 -282 -288 0
-72 -198 -204 -282 -288 0
-126 -132 -198 -204 -282 0
-126 -132 -198 -204 -288 0
-126 -132 -198 -282 -288 0
-126 -132 -204 -282 -288 0
-126 -198 -204 -282 -288 0
-132 -198 -204 -282 -288 0
66 72 126 132 198 0
66 72 126 132 204 0
66 72 126 132 282 0
66 72 126 132 288 0
66 72 126 198 204 0
66 72 126 198 282 0
66 72 126 198 288 0
66 72 126 204 282 0
66 72 126 204 288 0
66 72 126 282 288 0
66 72 132 198 204 0
66 72 132 198 282 0
66 72 132 198 288 0
66 72 132 204 282 0
66 72 132 204 288 0
66 72 132 282 288 0
66 72 198 204 282 0
66 72 198 204 288 0
66 72 198 282 288 0
66 72 204 282 288 0
66 126 132 198 204 0
66 126 132 198 282 0
66 126 132 198 288 0
66 126 132 204 282 0
66 126 132 204 288 0
66 126 132 282 288 0
66 126 198 204 282 0
66 126 198 204 288 0
66 126 198 282 288 0
66 126 204 282 288 0
66 132 198 204 282 0
66 132 198 204 288 0
66 132 198 282 288 0
66 132 204 282 288 0
66 198 204 282 288 0
72 126 132 198 204 0
72 126 132 198 282 0
72 126 132 198 288 0
72 126 132 204 282 0
72 126 132 204 288 0
72 126 132 282 288 0
72 126 198 204 282 0
72 126 198 204 288 0
72 126 198 282 288 0
72 126 204 282 288 0
72 132 198 204 282 0
72 132 198 204 288 0
72 132 198 282 288 0
72 132 204 282 288 0
72 198 204 282 288 0
126 132 198 204 282 0
126 132 198 204 288 0
126 132 198 282 288 0
126 132 204 282 288 0
126 198 204 282 288 0
132 198 204 282 288 0
-525 -540 -675 0
-525 -540 -690 0
-525 -540 -855 0
-525 -540 -870 0
-525 -540 -1065 0
-525 -540 -1080 0
-525 -675 -690 0
-525 -675 -855 0
-525 -675 -870 0
-525 -675 -1065 0
-525 -675 -1080 0
-525 -690 -855 0
-525 -690 -870 0
-525 -690 -1065 0
-525 -690 -1080 0
-525 -855 -870 0
-525 -855 -1065 0
-525 -855 -1080 0
-525 -870 -1065 0
-525 -870 -1080 0
-525 -1065 -1080 0
-540 -675 -690 0
-540 -675 -855 0
-540 -675 -870 0
-540 -675 -1065 0
-540 -675 -1080 0
-540 -690 -855 0
-540 -690 -870 0
-540 -690 -1065 0
-540 -690 -1080 0
-540 -855 -870 0
-540 -855 -1065 0
-540 -855 -1080 0
-540 -870 -1065 0
-540 -870 -1080 0
-540 -1065 -1080 0
-675 -690 -855 0
-675 -690 -870 0
-675 -690 -1065 0
-675 -690 -1080 0
-675 -855 -870 0
-675 -855 -1065 0
-675 -855 -1080 0
-675 -870 -1065 0
-675 -870 -1080 0
-675 -1065 -1080 0
-690 -855 -870 0
-690 -855 -1065 0
-690 -855 -1080 0
-690 -870 -1065 0
-690 -870 -1080 0
-690 -1065 -1080 0
-855 -870 -1065 0
-855 -870 -1080 0
-855 -1065 -1080 0
-870 -1065 -1080 0
525 540 675 690 855 870 1065 0
525 540 675 690 855 870 1080 0
525 540 675 690 855 1065 1080 0
525 540 675 690 870 1065 1080 0
525 540 675 855 870 1065 1080 0
525 540 690 855 870 1065 1080 0
525 675 690 855 870 1065 1080 0
540 675 690 855 870 1065 1080 0
-17 -23 -77 -83 -149 0
-17 -23 -77 -83 -155 0
-17 -23 -77 -83 -233 0
-17 -23 -77 -83 -239 0
-17 -23 -77 -149 -155 0
-17 -23 -77 -149 -233 0
-17 -23 -77 -149 -239 0
-17 -23 -77 -155 -233 0
-17 -23 -77 -155 -239 0
-17 -23 -77 -233 -239 0
-17 -23 -83 -149 -155 0
-17 -23 -83 -149 -233 0
-17 -23 -83 -149 -239 0
-17 -23 -83 -155 -233 0
-17 -23 -83 -155 -239 0
-17 -23 -83 -233 -239 0
-17 -23 -149 -155 -233 0
-17 -23 -149 -155 -239 0
-17 -23 -149 -233 -239 0
-17 -23 -155 -233 -239 0
-17 -77 -83 -149 -155 0
-17 -77 -83 -149 -233 0
-17 -77 -83 -149 -239 0
-17 -77 -83 -155 -233 0
-17 -77 -83 -155 -239 0
-17 -77 -83 -233 -239 0
-17 -77 -149 -155 -233 0
-17 -77 -149 -155 -239 0
-17 -77 -149 -233 -239 0
-17 -77 -155 -233 -239 0
-17 -83 -149 -155 -233 0
-17 -83 -149 -155 -239 0
-17 -83 -149 -233 -239 0
-17 -83 -155 -233 -239 0
-17 -149 -155 -233 -239 0
-23 -77 -83 -149 -155 0
-23 -77 -83 -149 -233 0
-23 -77 -83 -149 -239 0
-23 -77 -83 -155 -233 0
-23 -77 -83 -155 -239 0
-23 -77 -83 -233 -239 0
-23 -77 -149 -155 -233 0
-23 -77 -149 -155 -239 0
-23 -77 -149 -233 -239 0
-23 -77 -155 -233 -239 0
-23 -83 -149 -155 -233 0
-23 -83 -149 -155 -239 0
-23 -83 -149 -233 -239 0
-23 -83 -155 -233 -239 0
-23 -149 -155 -233 -239 0
-77 -83 -149 -155 -233 0
-77 -83 -149 -155 -239 0
-77 -83 -149 -233 -239 0
-77 -83 -155 -233 -239 0
-77 -149 -155 -233 -239 0
-83 -149 -155 -233 -239 0
17 23 77 83 149 0
17 23 77 83 155 0
17 23 77 83 233 0
17 23 77 83 239 0
17 23 77 149 155 0
17 23 77 149 233 0
17 23 77 149 239 0
17 23 77 155 233 0
17 23 77 155 239 0
17 23 77 233 239 0
17 23 83 149 155 0
17 23 83 149 233 0
17 23 83 149 239 0
17 23 83 155 233 0
17 23 83 155 239 0
17 23 83 233 239 0
17 23 149 155 233 0
17 23 149 155 239 0
17 23 149 233 239 0
17 23 155 233 239 0
17 77 83 149 155 0
17 77 83 149 233 0
17 77 83 149 239 0
17 77 83 155 233 0
17 77 83 155 239 0
17 77 83 233 239 0
17 77 149 155 233 0
17 77 149 155 239 0
17 77 149 233 239 0
17 77 155 233 239 0
17 83 149 155 233 0
17 83 149 155 239 0
17 83 149 233 239 0
17 83 155 233 239 0
17 149 155 233 239 0
23 77 83 149 155 0
23 77 83 149 233 0
23 77 83 149 239 0
23 77 83 155 233 0
23 77 83 155 239 0
23 77 83 233 239 0
23 77 149 155 233 0
23 77 149 155 239 0
23 77 149 233 239 0
23 77 155 233 239 0
23 83 149 155 233 0
23 83 149 155 239 0
23 83 149 233 239 0
23 83 155 233 239 0
23 149 155 233 239 0
77 83 149 155 233 0
77 83 149 155 239 0
77 83 149 233 239 0
77 83 155 233 239 0
77 149 155 233 239 0
83 149 155 233 239 0
-18 -24 -78 -84 -150 0
-18 -24 -78 -84 -156 0
-18 -24 -78 -84 -234 0
-18 -24 -78 -84 -240 0
-18 -24 -78 -150 -156 0
-18 -24 -78 -150 -234 0
-18 -24 -78 -150 -240 0
-18 -24 -78 -156 -234 0
-18 -24 -78 -156 -240 0
-18 -24 -78 -234 -240 0
-18 -24 -84 -150 -156 0
-18 -24 -84 -150 -234 0
-18 -24 -84 -150 -240 0
-18 -24 -84 -156 -234 0
-18 -24 -84 -156 -240 0
-18 -24 -84 -234 -240 0
-18 -24 -150 -156 -234 0
-18 -24 -150 -156 -240 0
-18 -24 -150 -234 -240 0
-18 -24 -156 -234 -240 0
-18 -78 -84 -150 -156 0
-18 -78 -84 -150 -234 0
-18 -78 -84 -150 -240 0
-18 -78 -84 -156 -234 0
-18 -78 -84 -156 -240 0
-18 -78 -84 -234 -240 0
-18 -78 -150 -156 -234 0
-18 -78 -150 -156 -240 0
-18 -78 -150 -234 -240 0
-18 -78 -156 -234 -240 0
-18 -84 -150 -156 -234 0
-18 -84 -150 -156 -240 0
-18 -84 -150 -234 -240 0
-18 -84 -156 -234 -240 0
-18 -150 -156 -234 -240 0
-24 -78 -84 -150 -156 0
-24 -78 -84 -150 -234 0
-24 -78 -84 -150 -240 0
-24 -78 -84 -156 -234 0
-24 -78 -84 -156 -240 0
-24 -78 -84 -234 -240 0
-24 -78 -150 -156 -234 0
-24 -78 -150 -156 -240 0
-24 -78 -150 -234 -240 0
-24 -78 -156 -234 -240 0
-24 -84 -150 -156 -234 0
-24 -84 -150 -156 -240 0
-24 -84 -150 -234 -240 0
-24 -84 -156 -234 -240 0
-24 -150 -156 -234 -240 0
-78 -84 -150 -156 -234 0
-78 -84 -150 -156 -240 0
-78 -84 -150 -234 -240 0
-78 -84 -156 -234 -240 0
-78 -150 -156 -234 -240 0
-84 -150 -156 -234 -240 0
18 24 78 84 150 0
18 24 78 84 156 0
18 24 78 84 234 0
18 24 78 84 240 0
18 24 78 150 156 0
18 24 78 150 234 0
18 24 78 150 240 0
18 24 78 156 234 0
18 24 78 156 240 0
18 24 78 234 240 0
18 24 84 150 156 0
18 24 84 150 234 0
18 24 84 150 240 0
18 24 84 156 234 0
18 24 84 156 240 0
18 24 84 234 240 0
18 24 150 156 234 0
18 24 150 156 240 0
18 24 150 234 240 0
18 24 156 234 240 0
18 78 84 150 156 0
18 78 84 150 234 0
18 78 84 150 240 0
18 78 84 156 234 0
18 78 84 156 240 0
18 78 84 234 240 0
18 78 150 156 234 0
18 78 150 156 240 0
18 78 150 234 240 0
18 78 156 234 240 0
18 84 150 156 234 0
18 84 150 156 240 0
18 84 150 234 240 0
18 84 156 234 240 0
18 150 156 234 240 0
24 78 84 150 156 0
24 78 84 150 234 0
24 78 84 150 240 0
24 78 84 156 234 0
24 78 84 156 240 0
24 78 84 234 240 0
24 78 150 156 234 0
24 78 150 156 240 0
24 78 150 234 240 0
24 78 156 234 240 0
24 84 150 156 234 0
24 84 150 156 240 0
24 84 150 234 240 0
24 84 156 234 240 0
24 150 156 234 240 0
78 84 150 156 234 0
78 84 150 156 240 0
78 84 150 234 240 0
78 84 156 234 240 0
78 150 156 234 240 0
84 150 156 234 240 0
-405 -420 -555 0
-405 -420 -570 0
-405 -420 -735 0
-405 -420 -750 0
-405 -420 -945 0
-405 -420 -960 0
-405 -555 -570 0
-405 -555 -735 0
-405 -555 -750 0
-405 -555 -945 0
-405 -555 -960 0
-405 -570 -735 0
-405 -570 -750 0
-405 -570 -945 0
-405 -570 -960 0
-405 -735 -750 0
-405 -735 -945 0
-405 -735 -960 0
-405 -750 -945 0
-405 -750 -960 0
-405 -945 -960 0
-420 -555 -570 0
-420 -555 -735 0
-420 -555 -750 0
-420 -555 -945 0
-420 -555 -960 0
-420 -570 -735 0
-420 -570 -750 0
-420 -570 -945 0
-420 -570 -960 0
-420 -735 -750 0
-420 -735 -945 0
-420 -735 -960 0
-420 -750 -945 0
-420 -750 -960 0
-420 -945 -960 0
-555 -570 -735 0
-555 -570 -750 0
-555 -570 -945 0
-555 -570 -960 0
-555 -735 -750 0
-555 -735 -945 0
-555 -735 -960 0
-555 -750 -945 0
-555 -750 -960 0
-555 -945 -960 0
-570 -735 -750 0
-570 -735 -945 0
-570 -735 -960 0
-570 -750 -945 0
-570 -750 -960 0
-570 -945 -960 0
-735 -750 -945 0
-735 -750 -960 0
-735 -945 -960 0
-750 -945 -960 0
405 420 555 570 735 750 945 0
405 420 555 570 735 750 960 0
405 420 555 570 735 945 960 0
405 420 555 570 750 945 960 0
405 420 555 735 750 945 960 0
405 420 570 735 750 945 960 0
405 555 570 735 750 945 960 0
420 555 570 735 750 945 960 0
-41 -47 -101 -107 -173 0
-41 -47 -101 -107 -179 0
-41 -47 -101 -107 -257 0
-41 -47 -101 -107 -263 0
-41 -47 -101 -173 -179 0
-41 -47 -101 -173 -257 0
-41 -47 -101 -173 -263 0
-41 -47 -101 -179 -257 0
-41 -47 -101 -179 -263 0
-41 -47 -101 -257 -263 0
-41 -47 -107 -173 -179 0
-41 -47 -107 -173 -257 0
-41 -47 -107 -173 -263 0
-41 -47 -107 -179 -257 0
-41 -47 -107 -179 -263 0
-41 -47 -107 -257 -263 0
-41 -47 -173 -179 -257 0
-41 -47 -173 -179 -263 0
-41 -47 -173 -257 -263 0
-41 -47 -179 -257 -263 0
-41 -101 -107 -173 -179 0
-41 -101 -107 -173 -257 0
-41 -101 -107 -173 -263 0
-41 -101 -107 -179 -257 0
-41 -101 -107 -179 -263 0
-41 -101 -107 -257 -263 0
-41 -101 -173 -179 -257 0
-41 -101 -173 -179 -263 0
-41 -101 -173 -257 -263 0
-41 -101 -179 -257 -263 0
-41 -107 -173 -179 -257 0
-41 -107 -173 -179 -263 0
-41 -107 -173 -257 -263 0
-41 -107 -179 -257 -263 0
-41 -173 -179 -257 -263 0
-47 -101 -107 -173 -179 0
-47 -101 -107 -173 -257 0
-47 -101 -107 -173 -263 0
-47 -101 -107 -179 -257 0
-47 -101 -107 -179 -263 0
-47 -101 -107 -257 -263 0
-47 -101 -173 -179 -257 0
-47 -101 -173 -179 -263 0
-47 -101 -173 -257 -263 0
-47 -101 -179 -257 -263 0
-47 -107 -173 -179 -257 0
-47 -107 -173 -179 -263 0
-47 -107 -173 -257 -263 0
-47 -107 -179 -257 -263 0
-47 -173 -179 -257 -263 0
-101 -107 -173 -179 -257 0
-101 -107 -173 -179 -263 0
-101 -107 -173 -257 -263 0
-101 -107 -179 -257 -263 0
-101 -173 -179 -257 -263 0
-107 -173 -179 -257 -263 0
41 47 101 107 173 0
41 47 101 107 179 0
41 47 101 107 257 0
41 47 101 107 263 0
41 47 101 173 179 0
41 47 101 173 257 0
41 47 101 173 263 0
41 47 101 179 257 0
41 47 101 179 263 0
41 47 101 257 263 0
41 47 107 173 179 0
41 47 107 173 257 0
41 47 107 173 263 0
41 47 107 179 257 0
41 47 107 179 263 0
41 47 107 257 263 0
41 47 173 179 257 0
41 47 173 179 263 0
41 47 173 257 263 0
41 47 179 257 263 0
41 101 107 173 179 0
41 101 107 173 257 0
41 101 107 173 263 0
41 101 107 179 257 0
41 101 107 179 263 0
41 101 107 257 263 0
41 101 173 179 257 0
41 101 173 179 263 0
41 101 173 257 263 0
41 101 179 257 263 0
41 107 173 179 257 0
41 107 173 179 263 0
41 107 173 257 263 0
41 107 179 257 263 0
41 173 179 257 263 0
47 101 107 173 179 0
47 101 107 173 257 0
47 101 107 173 263 0
47 101 107 179 257 0
47 101 107 179 263 0
47 101 107 257 263 0
47 101 173 179 257 0
47 101 173 179 263 0
47 101 173 257 263 0
47 101 179 257 263 0
47 107 173 179 257 0
47 107 173 179 263 0
47 107 173 257 263 0
47 107 179 257 263 0
47 173 179 257 263 0
101 107 173 179 257 0
101 107 173 179 263 0
101 107 173 257 263 0
101 107 179 257 263 0
101 173 179 257 263 0
107 173 179 257 263 0
-42 -48 -102 -108 -174 0
-42 -48 -102 -108 -180 0
-42 -48 -102 -108 -258 0
-42 -48 -102 -108 -264 0
-42 -48 -102 -174 -180 0
-42 -48 -102 -174 -258 0
-42 -48 -102 -174 -264 0
-42 -48 -102 -180 -258 0
-42 -48 -102 -180 -264 0
-42 -48 -102 -258 -264 0
-42 -48 -108 -174 -180 0
-42 -48 -108 -174 -258 0
-42 -48 -108 -174 -264 0
-42 -48 -108 -180 -258 0
-42 -48 -108 -180 -264 0
-42 -48 -108 -258 -264 0
-42 -48 -174 -180 -258 0
-42 -48 -174 -180 -264 0
-42 -48 -174 -258 -264 0
-42 -48 -180 -258 -264 0
-42 -102 -108 -174 -180 0
-42 -102 -108 -174 -258 0
-42 -102 -108 -174 -264 0
-42 -102 -108 -180 -258 0
-42 -102 -108 -180 -264 0
-42 -102 -108 -258 -264 0
-42 -102 -174 -180 -258 0
-42 -102 -174 -180 -264 0
-42 -102 -174 -258 -264 0
-42 -102 -180 -258 -264 0
-42 -108 -174 -180 -258 0
-42 -108 -174 -180 -264 0
-42 -108 -174 -258 -264 0
-42 -108 -180 -258 -264 0
-42 -174 -180 -258 -264 0
-48 -102 -108 -174 -180 0
-48 -102 -108 -174 -258 0
-48 -102 -108 -174 -264 0
-48 -102 -108 -180 -258 0
-48 -102 -108 -180 -264 0
-48 -102 -108 -258 -264 0
-48 -102 -174 -180 -258 0
-48 -102 -174 -180 -264 0
-48 -102 -174 -258 -264 0
-48 -102 -180 -258 -264 0
-48 -108 -174 -180 -258 0
-48 -108 -174 -180 -264 0
-48 -108 -174 -258 -264 0
-48 -108 -180 -258 -264 0
-48 -174 -180 -258 -264 0
-102 -108 -174 -180 -258 0
-102 -108 -174 -180 -264 0
-102 -108 -174 -258 -264 0
-102 -108 -180 -258 -264 0
-102 -174 -180 -258 -264 0
-108 -174 -180 -258 -264 0
42 48 102 108 174 0
42 48 102 108 180 0
42 48 102 108 258 0
42 48 102 108 264 0
42 48 102 174 180 0
42 48 102 174 258 0
42 48 102 174 264 0
42 48 102 180 258 0
42 48 102 180 264 0
42 48 102 258 264 0
42 48 108 174 180 0
42 48 108 174 258 0
42 48 108 174 264 0
42 48 108 180 258 0
42 48 108 180 264 0
42 48 108 258 264 0
42 48 174 180 258 0
42 48 174 180 264 0
42 48 174 258 264 0
42 48 180 258 264 0
42 102 108 174 180 0
42 102 108 174 258 0
42 102 108 174 264 0
42 102 108 180 258 0
42 102 108 180 264 0
42 102 108 258 264 0
42 102 174 180 258 0
42 102 174 180 264 0
42 102 174 258 264 0
42 102 180 258 264 0
42 108 174 180 258 0
42 108 174 180 264 0
42 108 174 258 264 0
42 108 180 258 264 0
42 174 180 258 264 0
48 102 108 174 180 0
48 102 108 174 258 0
48 102 108 174 264 0
48 102 108 180 258 0
48 102 108 180 264 0
48 102 108 258 264 0
48 102 174 180 258 0
48 102 174 180 264 0
48 102 174 258 264 0
48 102 180 258 264 0
48 108 174 180 258 0
48 108 174 180 264 0
48 108 174 258 264 0
48 108 180 258 264 0
48 174 180 258 264 0
102 108 174 180 258 0
102 108 174 180 264 0
102 108 174 258 264 0
102 108 180 258 264 0
102 174 180 258 264 0
108 174 180 258 264 0
-465 -480 -615 0
-465 -480 -630 0
-465 -480 -795 0
-465 -480 -810 0
-465 -480 -1005 0
-465 -480 -1020 0
-465 -615 -630 0
-465 -615 -795 0
-465 -615 -810 0
-465 -615 -1005 0
-465 -615 -1020 0
-465 -630 -795 0
-465 -630 -810 0
-465 -630 -1005 0
-465 -630 -1020 0
-465 -795 -810 0
-465 -795 -1005 0
-465 -795 -1020 0
-465 -810 -1005 0
-465 -810 -1020 0
-465 -1005 -1020 0
-480 -615 -630 0
-480 -615 -795 0
-480 -615 -810 0
-480 -615 -1005 0
-480 -615 -1020 0
-480 -630 -795 0
-480 -630 -810 0
-480 -630 -1005 0
-480 -630 -1020 0
-480 -795 -810 0
-480 -795 -1005 0
-480 -795 -1020 0
-480 -810 -1005 0
-480 -810 -1020 0
-480 -1005 -1020 0
-615 -630 -795 0
-615 -630 -810 0
-615 -630 -1005 0
-615 -630 -1020 0
-615 -795 -810 0
-615 -795 -1005 0
-615 -795 -1020 0
-615 -810 -1005 0
-615 -810 -1020 0
-615 -1005 -1020 0
-630 -795 -810 0
-630 -795 -1005 0
-630 -795 -1020 0
-630 -810 -1005 0
-630 -810 -1020 0
-630 -1005 -1020 0
-795 -810 -1005 0
-795 -810 -1020 0
-795 -1005 -1020 0
-810 -1005 -1020 0
465 480 615 630 795 810 1005 0
465 480 615 630 795 810 1020 0
465 480 615 630 795 1005 1020 0
465 480 615 630 810 1005 1020 0
465 480 615 795 810 1005 1020 0
465 480 630 795 810 1005 1020 0
465 615 630 795 810 1005 1020 0
480 615 630 795 810 1005 1020 0
-341 -347 -353 0
-341 -347 -359 0
-341 -353 -359 0
-347 -353 -359 0
341 347 353 0
341 347 359 0
341 353 359 0
347 353 359 0
-342 -348 -354 0
-342 -348 -360 0
-342 -354 -360 0
-348 -354 -360 0
342 348 354 0
342 348 360 0
342 354 360 0
348 354 360 0
-1215 -1230 0
-1215 -1245 0
-1215 -1260 0
-1230 -1245 0
-1230 -1260 0
-1245 -1260 0
1215 1230 1245 1260 0
