p cnf 9748 39510
2185 -1 0
-2185 1 0
2186 -2185 0
-2186 2185 2 0
-2 -2185 0
2187 -2186 0
-2187 2186 3 0
-3 -2186 0
2188 -2187 0
-2188 2187 4 0
-4 -2187 0
2189 -2188 0
-2189 2188 5 0
-5 -2188 0
2190 -2189 0
-2190 2189 6 0
-6 -2189 0
2191 -2190 0
-2191 2190 7 0
-7 -2190 0
2192 -2191 0
-2192 2191 8 0
-8 -2191 0
2193 -2192 0
-2193 2192 9 0
-9 -2192 0
2194 -2193 0
-2194 2193 10 0
-10 -2193 0
2195 -2194 0
-2195 2194 11 0
-11 -2194 0
-2195 2196 0
-2196 2195 12 0
-12 -2195 0
-2196 2197 0
-2197 2196 13 0
-13 -2196 0
-2197 2198 0
-2198 2197 14 0
-14 -2197 0
-2198 2199 0
-2199 2198 15 0
-15 -2198 0
-2199 2200 0
-2200 2199 16 0
-16 -2199 0
-2200 2201 0
-2201 2200 17 0
-17 -2200 0
-2201 2202 0
-2202 2201 18 0
-18 -2201 0
-2202 2203 0
-2203 2202 19 0
-19 -2202 0
-2203 2204 0
-2204 2203 20 0
-20 -2203 0
-2204 2205 0
-2205 2204 21 0
-21 -2204 0
-2205 2206 0
-2206 2205 22 0
-22 -2205 0
-2206 2207 0
-2207 2206 23 0
-23 -2206 0
-2207 2208 0
-2208 2207 24 0
-24 -2207 0
-2208 2209 0
-2209 2208 25 0
-25 -2208 0
-2209 2210 0
-2210 2209 26 0
-26 -2209 0
-2210 2211 0
-2211 2210 27 0
-27 -2210 0
-2211 2212 0
-2212 2211 28 0
-28 -2211 0
-2212 2213 0
-2213 2212 29 0
-29 -2212 0
-2213 2214 0
-2214 2213 30 0
-30 -2213 0
-2214 2215 0
-2215 2214 31 0
-31 -2214 0
-2215 2216 0
-2216 2215 32 0
-32 -2215 0
-2216 2217 0
-2217 2216 33 0
-33 -2216 0
-2217 2218 0
-2218 2217 34 0
-34 -2217 0
-2218 2219 0
-2219 2218 35 0
-35 -2218 0
-2219 2220 0
-2220 2219 36 0
-36 -2219 0
-2220 2221 0
-2221 2220 37 0
-37 -2220 0
-2221 2222 0
-2222 2221 38 0
-38 -2221 0
-2222 2223 0
-2223 2222 39 0
-39 -2222 0
-2223 2224 0
-2224 2223 40 0
-40 -2223 0
-2224 2225 0
-2225 2224 41 0
-41 -2224 0
-2225 2226 0
-2226 2225 42 0
-42 -2225 0
-2226 2227 0
-2227 2226 43 0
-43 -2226 0
-2227 2228 0
-2228 2227 44 0
-44 -2227 0
-2228 2229 0
-2229 2228 45 0
-45 -2228 0
-2229 2230 0
-2230 2229 46 0
-46 -2229 0
-2230 2231 0
-2231 2230 47 0
-47 -2230 0
-2231 2232 0
-2232 2231 48 0
-48 -2231 0
-2232 2233 0
-2233 2232 49 0
-49 -2232 0
-2233 2234 0
-2234 2233 50 0
-50 -2233 0
-2234 2235 0
-2235 2234 51 0
-51 -2234 0
-2235 2236 0
-2236 2235 52 0
-52 -2235 0
-2236 2237 0
-2237 2236 53 0
-53 -2236 0
-2237 2238 0
-2238 2237 54 0
-54 -2237 0
-2238 2239 0
-2239 2238 55 0
-55 -2238 0
-2239 2240 0
-2240 2239 56 0
-56 -2239 0
-2240 2241 0
-2241 2240 57 0
-57 -2240 0
-2241 2242 0
-2242 2241 58 0
-58 -2241 0
-2242 2243 0
-2243 2242 59 0
-59 -2242 0
-2243 2244 0
-2244 2243 60 0
-60 -2243 0
-2244 2245 0
-2245 2244 61 0
-61 -2244 0
-2245 2246 0
-2246 2245 62 0
-62 -2245 0
-2246 2247 0
-2247 2246 63 0
-63 -2246 0
-2247 2248 0
-2248 2247 64 0
-64 -2247 0
-2248 2249 0
-2249 2248 65 0
-65 -2248 0
-2249 2250 0
-2250 2249 66 0
-66 -2249 0
-2250 2251 0
-2251 2250 67 0
-67 -2250 0
-2251 2252 0
-2252 2251 68 0
-68 -2251 0
-2252 2253 0
-2253 2252 69 0
-69 -2252 0
-2253 2254 0
-2254 2253 70 0
-70 -2253 0
-2254 2255 0
-2255 2254 71 0
-71 -2254 0
-2255 2256 0
-2256 2255 72 0
-72 -2255 0
-2256 2257 0
-2257 2256 73 0
-73 -2256 0
-2257 2258 0
-2258 2257 74 0
-74 -2257 0
-2258 2259 0
-2259 2258 75 0
-75 -2258 0
-2259 2260 0
-2260 2259 76 0
-76 -2259 0
-2260 2261 0
-2261 2260 77 0
-77 -2260 0
-2261 2262 0
-2262 2261 78 0
-78 -2261 0
-2262 2263 0
-2263 2262 79 0
-79 -2262 0
-2263 2264 0
-2264 2263 80 0
-80 -2263 0
-2264 2265 0
-2265 2264 81 0
-81 -2264 0
-2265 2266 0
-2266 2265 82 0
-82 -2265 0
-2266 2267 0
-2267 2266 83 0
-83 -2266 0
-2267 2268 0
-2268 2267 84 0
-84 -2267 0
-2268 2269 0
-2269 2268 85 0
-85 -2268 0
-2269 2270 0
-2270 2269 86 0
-86 -2269 0
-2270 2271 0
-2271 2270 87 0
-87 -2270 0
-2271 2272 0
-2272 2271 88 0
-88 -2271 0
-2272 2273 0
-2273 2272 89 0
-89 -2272 0
-2273 2274 0
-2274 2273 90 0
-90 -2273 0
-2274 2275 0
-2275 2274 91 0
-91 -2274 0
-2275 2276 0
-2276 2275 92 0
-92 -2275 0
-2276 2277 0
-2277 2276 93 0
-93 -2276 0
-2277 2278 0
-2278 2277 94 0
-94 -2277 0
-2278 2279 0
2278 -2279 95 0
-95 -2278 0
-2279 2280 0
2279 -2280 96 0
-96 -2279 0
-2280 2281 0
2280 -2281 97 0
-97 -2280 0
-2281 2282 0
2281 -2282 98 0
-98 -2281 0
-2282 2283 0
2282 -2283 99 0
-99 -2282 0
-2283 2284 0
2283 -2284 100 0
-100 -2283 0
-2284 2285 0
2284 -2285 101 0
-101 -2284 0
-2285 2286 0
2285 -2286 102 0
-102 -2285 0
-2286 2287 0
2286 -2287 103 0
-103 -2286 0
-2287 2288 0
2287 -2288 104 0
-104 -2287 0
-2288 2289 0
2288 -2289 105 0
-105 -2288 0
-2289 2290 0
2289 -2290 106 0
-106 -2289 0
-2290 2291 0
2290 -2291 107 0
-107 -2290 0
-2291 2292 0
2291 -2292 108 0
-108 -2291 0
-2292 2293 0
2292 -2293 109 0
-109 -2292 0
-2293 2294 0
2293 -2294 110 0
-110 -2293 0
-2294 2295 0
2294 -2295 111 0
-111 -2294 0
-2295 2296 0
2295 -2296 112 0
-112 -2295 0
-2296 2297 0
2296 -2297 113 0
-2296 -113 0
-2297 2298 0
2297 -2298 114 0
-114 -2297 0
-2298 2299 0
2298 -2299 115 0
-115 -2298 0
-2299 2300 0
2299 -2300 116 0
-116 -2299 0
-2300 2301 0
2300 -2301 117 0
-117 -2300 0
-2301 2302 0
2301 -2302 118 0
-118 -2301 0
-2302 2303 0
2302 -2303 119 0
-119 -2302 0
-2303 2304 0
2303 -2304 120 0
-120 -2303 0
-2304 2305 0
2304 -2305 121 0
-121 -2304 0
-2305 2306 0
2305 -2306 122 0
-122 -2305 0
-2306 2307 0
2306 -2307 123 0
-123 -2306 0
-2307 2308 0
2307 -2308 124 0
-124 -2307 0
-2308 2309 0
2308 -2309 125 0
-125 -2308 0
-2309 2310 0
2309 126 -2310 0
-126 -2309 0
-2310 2311 0
2310 -2311 127 0
-127 -2310 0
-2311 2312 0
2311 -2312 128 0
-128 -2311 0
-2312 2313 0
2312 -2313 129 0
-129 -2312 0
-2313 2314 0
2313 -2314 130 0
-130 -2313 0
-2314 2315 0
2314 -2315 131 0
-131 -2314 0
-2315 2316 0
2315 -2316 132 0
-132 -2315 0
-2316 2317 0
2316 -2317 133 0
-2316 -133 0
-2317 2318 0
2317 -2318 134 0
-134 -2317 0
-2318 2319 0
2318 -2319 135 0
-135 -2318 0
-2319 2320 0
2319 -2320 136 0
-136 -2319 0
-2320 2321 0
2320 -2321 137 0
-137 -2320 0
-2321 2322 0
2321 -2322 138 0
-138 -2321 0
2323 -2322 0
2322 -2323 139 0
-2322 -139 0
2324 -2323 0
2323 -2324 140 0
-140 -2323 0
2325 -2324 0
2324 -2325 141 0
-141 -2324 0
2326 -2325 0
2325 -2326 142 0
-142 -2325 0
2327 -2326 0
2326 -2327 143 0
-143 -2326 0
2328 -2327 0
2327 -2328 144 0
-144 -2327 0
2329 -2328 0
2328 -2329 145 0
-145 -2328 0
2330 -2329 0
2329 -2330 146 0
-146 -2329 0
-2330 2331 0
2330 -2331 147 0
-147 -2330 0
-2331 2332 0
2331 -2332 148 0
-148 -2331 0
-2332 2333 0
2332 -2333 149 0
-149 -2332 0
2333 150 0
-2333 -150 0
-151 2334 0
-2334 151 0
-2334 2335 0
-152 2335 0
-2335 2334 152 0
-2334 -152 0
-2335 2336 0
-153 2336 0
-2336 2335 153 0
-153 -2335 0
-2336 2337 0
-154 2337 0
-2337 2336 154 0
-154 -2336 0
-2337 2338 0
-155 2338 0
-2338 2337 155 0
-155 -2337 0
-2338 2339 0
-156 2339 0
-2339 2338 156 0
-156 -2338 0
-2339 2340 0
-157 2340 0
-2340 2339 157 0
-2339 -157 0
-2340 2341 0
-158 2341 0
-2341 2340 158 0
-2340 -158 0
2342 -2341 0
2342 -159 0
-2342 2341 159 0
-2341 -159 0
2343 -2342 0
-160 2343 0
-2343 160 2342 0
-160 -2342 0
2344 -2343 0
-161 2344 0
2343 -2344 161 0
-161 -2343 0
2345 -2344 0
-162 2345 0
2344 -2345 162 0
-162 -2344 0
2346 -2345 0
-163 2346 0
2345 -2346 163 0
-163 -2345 0
2347 -2346 0
-164 2347 0
2346 -2347 164 0
-164 -2346 0
2348 -2347 0
-165 2348 0
2347 -2348 165 0
-165 -2347 0
2349 -2348 0
-166 2349 0
2348 -2349 166 0
-166 -2348 0
2350 -2349 0
-167 2350 0
2349 -2350 167 0
-167 -2349 0
2351 -2350 0
-168 2351 0
2350 -2351 168 0
-168 -2350 0
2352 -2351 0
-169 2352 0
2351 -2352 169 0
-169 -2351 0
2353 -2352 0
-170 2353 0
2352 -2353 170 0
-170 -2352 0
2354 -2353 0
-171 2354 0
2353 -2354 171 0
-171 -2353 0
2355 -2354 0
-172 2355 0
2354 -2355 172 0
-172 -2354 0
2356 -2355 0
-173 2356 0
2355 -2356 173 0
-173 -2355 0
2357 -2356 0
-174 2357 0
2356 -2357 174 0
-174 -2356 0
2358 -2357 0
-175 2358 0
2357 -2358 175 0
-175 -2357 0
2359 -2358 0
-176 2359 0
2358 -2359 176 0
-176 -2358 0
2360 -2359 0
-177 2360 0
2359 -2360 177 0
-177 -2359 0
2361 -2360 0
-178 2361 0
2360 -2361 178 0
-178 -2360 0
2362 -2361 0
-179 2362 0
2361 -2362 179 0
-179 -2361 0
2363 -2362 0
-180 2363 0
2362 -2363 180 0
-180 -2362 0
2364 -2363 0
-181 2364 0
2363 -2364 181 0
-181 -2363 0
2365 -2364 0
-182 2365 0
2364 -2365 182 0
-182 -2364 0
2366 -2365 0
-183 2366 0
2365 -2366 183 0
-183 -2365 0
2367 -2366 0
-184 2367 0
2366 -2367 184 0
-184 -2366 0
2368 -2367 0
2368 -185 0
2367 -2368 185 0
-185 -2367 0
2369 -2368 0
2369 -186 0
2368 -2369 186 0
-186 -2368 0
2370 -2369 0
-187 2370 0
2369 -2370 187 0
-187 -2369 0
2371 -2370 0
-188 2371 0
2370 -2371 188 0
-188 -2370 0
2372 -2371 0
-189 2372 0
2371 -2372 189 0
-189 -2371 0
2373 -2372 0
-190 2373 0
2372 -2373 190 0
-190 -2372 0
2374 -2373 0
-191 2374 0
2373 -2374 191 0
-191 -2373 0
2375 -2374 0
-192 2375 0
2374 192 -2375 0
-192 -2374 0
2376 -2375 0
-193 2376 0
2375 -2376 193 0
-193 -2375 0
2377 -2376 0
-194 2377 0
2376 -2377 194 0
-194 -2376 0
2378 -2377 0
-195 2378 0
2377 -2378 195 0
-195 -2377 0
2379 -2378 0
-196 2379 0
2378 -2379 196 0
-196 -2378 0
2380 -2379 0
2379 -2380 197 0
-197 -2379 0
2380 198 0
-198 -2380 0
-199 2381 0
-2381 199 0
-2381 2382 0
-200 2382 0
-2382 200 2381 0
-2382 2383 0
-201 2383 0
-2383 201 2382 0
-2383 2384 0
-202 2384 0
-2384 2383 202 0
-2383 -202 0
-2384 2385 0
-203 2385 0
-2385 2384 203 0
-203 -2384 0
-2385 2386 0
-204 2386 0
-2386 2385 204 0
-204 -2385 0
-2386 2387 0
-205 2387 0
-2387 2386 205 0
-2386 -205 0
-2387 2388 0
-206 2388 0
-2388 2387 206 0
-206 -2387 0
-2388 2389 0
-207 2389 0
-2389 2388 207 0
-2389 2390 0
-208 2390 0
-2390 2389 208 0
-208 -2389 0
-2390 2391 0
-209 2391 0
-2391 2390 209 0
-209 -2390 0
-2391 2392 0
-210 2392 0
-2392 2391 210 0
-2391 -210 0
-2392 2393 0
-211 2393 0
-2393 2392 211 0
-2393 2394 0
-212 2394 0
-2394 2393 212 0
-212 -2393 0
-2394 2395 0
-213 2395 0
-2395 2394 213 0
-2395 2396 0
-214 2396 0
-2396 2395 214 0
-2395 -214 0
-2396 2397 0
-215 2397 0
-2397 2396 215 0
-215 -2396 0
-2397 2398 0
-216 2398 0
-2398 2397 216 0
-216 -2397 0
-2398 2399 0
-217 2399 0
-2399 2398 217 0
-217 -2398 0
-2399 2400 0
-218 2400 0
-2400 2399 218 0
-218 -2399 0
-2400 2401 0
-219 2401 0
-2401 2400 219 0
-219 -2400 0
-2401 2402 0
2402 -220 0
2401 -2402 220 0
-2401 -220 0
-2402 2403 0
-221 2403 0
-2403 2402 221 0
-2402 -221 0
-2403 2404 0
-222 2404 0
-2404 2403 222 0
-222 -2403 0
-2404 2405 0
-223 2405 0
-2405 2404 223 0
-223 -2404 0
-2405 2406 0
-224 2406 0
-2406 2405 224 0
-224 -2405 0
-2406 2407 0
-225 2407 0
-2407 2406 225 0
-225 -2406 0
-2407 2408 0
-226 2408 0
-2408 2407 226 0
-226 -2407 0
-2408 2409 0
-227 2409 0
-2409 2408 227 0
-227 -2408 0
-2409 2410 0
-228 2410 0
-2410 2409 228 0
-228 -2409 0
-2410 2411 0
-229 2411 0
-2411 2410 229 0
-229 -2410 0
-2411 2412 0
-230 2412 0
-2412 2411 230 0
-230 -2411 0
-2412 2413 0
-231 2413 0
-2413 2412 231 0
-231 -2412 0
-2413 2414 0
-232 2414 0
-2414 2413 232 0
-232 -2413 0
-2414 2415 0
-233 2415 0
-2415 2414 233 0
-233 -2414 0
-2415 2416 0
-234 2416 0
-2416 2415 234 0
-234 -2415 0
-2416 2417 0
-235 2417 0
-2417 2416 235 0
-235 -2416 0
-2417 2418 0
-236 2418 0
-2418 2417 236 0
-236 -2417 0
-2418 2419 0
-237 2419 0
-2419 2418 237 0
-237 -2418 0
-2419 2420 0
-238 2420 0
-2420 2419 238 0
-238 -2419 0
-2420 2421 0
-239 2421 0
-2421 2420 239 0
-239 -2420 0
-2421 2422 0
-240 2422 0
-2422 2421 240 0
-240 -2421 0
-2422 2423 0
-241 2423 0
-2423 2422 241 0
-241 -2422 0
-2423 2424 0
-242 2424 0
-2424 2423 242 0
-242 -2423 0
-2424 2425 0
-243 2425 0
-2425 2424 243 0
-243 -2424 0
-2425 2426 0
-244 2426 0
-2426 2425 244 0
-244 -2425 0
-2426 2427 0
-245 2427 0
-2427 2426 245 0
-245 -2426 0
-2427 2428 0
-246 2428 0
-2428 2427 246 0
-246 -2427 0
-2428 2429 0
-247 2429 0
-2429 2428 247 0
-247 -2428 0
-2429 2430 0
-248 2430 0
-2430 2429 248 0
-248 -2429 0
-2430 2431 0
-249 2431 0
-2431 2430 249 0
-249 -2430 0
-2431 2432 0
-250 2432 0
-2432 2431 250 0
-250 -2431 0
-2432 2433 0
2433 -251 0
-2433 2432 251 0
-2432 -251 0
-2433 2434 0
-252 2434 0
-2434 2433 252 0
-252 -2433 0
-2434 2435 0
-253 2435 0
-2435 2434 253 0
-253 -2434 0
-2435 2436 0
-254 2436 0
-2436 2435 254 0
-254 -2435 0
-2436 2437 0
-255 2437 0
-2437 2436 255 0
-255 -2436 0
-2437 2438 0
-256 2438 0
-2438 2437 256 0
-256 -2437 0
-2438 2439 0
-257 2439 0
-2439 2438 257 0
-2438 -257 0
-2439 2440 0
-258 2440 0
-2440 2439 258 0
-258 -2439 0
-2440 2441 0
-259 2441 0
-2441 2440 259 0
-259 -2440 0
-2441 2442 0
-260 2442 0
-2442 2441 260 0
-260 -2441 0
-2442 2443 0
-261 2443 0
-2443 2442 261 0
-261 -2442 0
-2443 2444 0
-262 2444 0
-2444 2443 262 0
-262 -2443 0
-2444 2445 0
-263 2445 0
-2445 2444 263 0
-263 -2444 0
-2445 2446 0
-264 2446 0
-2446 2445 264 0
-264 -2445 0
-2446 2447 0
-265 2447 0
-2447 2446 265 0
-265 -2446 0
-2447 2448 0
-266 2448 0
-2448 2447 266 0
-266 -2447 0
-2448 2449 0
-267 2449 0
2448 -2449 267 0
-267 -2448 0
-2449 2450 0
-268 2450 0
2449 -2450 268 0
-268 -2449 0
-2450 2451 0
-269 2451 0
2450 -2451 269 0
-269 -2450 0
-2451 2452 0
-270 2452 0
2451 -2452 270 0
-270 -2451 0
2453 -2452 0
2453 -271 0
2452 -2453 271 0
-2452 -271 0
2454 -2453 0
-272 2454 0
2453 -2454 272 0
-272 -2453 0
2455 -2454 0
-273 2455 0
2454 -2455 273 0
-273 -2454 0
2456 -2455 0
-274 2456 0
2455 -2456 274 0
-274 -2455 0
2457 -2456 0
-275 2457 0
2456 -2457 275 0
-275 -2456 0
2458 -2457 0
-276 2458 0
2457 -2458 276 0
-276 -2457 0
2459 -2458 0
-277 2459 0
2458 -2459 277 0
-277 -2458 0
2460 -2459 0
2460 -278 0
2459 -2460 278 0
-2459 -278 0
2461 -2460 0
-279 2461 0
2460 -2461 279 0
-2460 -279 0
2462 -2461 0
-280 2462 0
2461 -2462 280 0
-280 -2461 0
2463 -2462 0
2463 -281 0
2462 -2463 281 0
-2462 -281 0
2464 -2463 0
-282 2464 0
2463 -2464 282 0
-282 -2463 0
2465 -2464 0
-283 2465 0
2464 -2465 283 0
-283 -2464 0
2466 -2465 0
-284 2466 0
2465 -2466 284 0
-284 -2465 0
2467 -2466 0
-285 2467 0
2466 -2467 285 0
-285 -2466 0
2468 -2467 0
-286 2468 0
2467 -2468 286 0
-286 -2467 0
2469 -2468 0
2468 -2469 287 0
2470 -2469 0
-288 2470 0
2469 288 -2470 0
-288 -2469 0
2471 -2470 0
-289 2471 0
2470 -2471 289 0
-289 -2470 0
2472 -2471 0
-290 2472 0
2471 -2472 290 0
-290 -2471 0
2473 -2472 0
-291 2473 0
2472 -2473 291 0
-291 -2472 0
2474 -2473 0
2474 -292 0
2473 -2474 292 0
-292 -2473 0
2475 -2474 0
-293 2475 0
2474 -2475 293 0
-293 -2474 0
2476 -2475 0
-294 2476 0
2475 -2476 294 0
-294 -2475 0
2477 -2476 0
-295 2477 0
2476 -2477 295 0
-295 -2476 0
2478 -2477 0
-296 2478 0
2477 -2478 296 0
-296 -2477 0
2479 -2478 0
-297 2479 0
2478 -2479 297 0
-297 -2478 0
2480 -2479 0
-298 2480 0
2479 -2480 298 0
-298 -2479 0
2481 -2480 0
-299 2481 0
2480 -2481 299 0
-299 -2480 0
2482 -2481 0
2482 -300 0
2481 -2482 300 0
-300 -2481 0
2483 -2482 0
-301 2483 0
2482 -2483 301 0
-301 -2482 0
2484 -2483 0
2484 -302 0
2483 -2484 302 0
-2483 -302 0
2485 -2484 0
-303 2485 0
2484 -2485 303 0
-303 -2484 0
2486 -2485 0
-304 2486 0
2485 -2486 304 0
-304 -2485 0
2487 -2486 0
-305 2487 0
2486 -2487 305 0
-305 -2486 0
2488 -2487 0
-306 2488 0
2487 -2488 306 0
-306 -2487 0
2489 -2488 0
-307 2489 0
2488 -2489 307 0
-307 -2488 0
2490 -2489 0
-308 2490 0
2489 -2490 308 0
-308 -2489 0
2491 -2490 0
-309 2491 0
2490 -2491 309 0
-309 -2490 0
2492 -2491 0
-310 2492 0
2491 -2492 310 0
-310 -2491 0
2493 -2492 0
-311 2493 0
2492 -2493 311 0
-311 -2492 0
2494 -2493 0
-312 2494 0
2493 -2494 312 0
-312 -2493 0
2495 -2494 0
-313 2495 0
2494 -2495 313 0
-313 -2494 0
2496 -2495 0
-314 2496 0
2495 -2496 314 0
-314 -2495 0
2497 -2496 0
2497 -315 0
2496 -2497 315 0
-2496 -315 0
2498 -2497 0
-316 2498 0
2497 -2498 316 0
-316 -2497 0
2499 -2498 0
-317 2499 0
2498 -2499 317 0
-317 -2498 0
2500 -2499 0
-318 2500 0
2499 -2500 318 0
-318 -2499 0
2501 -2500 0
-319 2501 0
2500 -2501 319 0
-319 -2500 0
2502 -2501 0
-320 2502 0
2501 -2502 320 0
-320 -2501 0
2503 -2502 0
-321 2503 0
2502 -2503 321 0
-321 -2502 0
2504 -2503 0
-322 2504 0
2503 -2504 322 0
-322 -2503 0
2505 -2504 0
-323 2505 0
2504 -2505 323 0
-323 -2504 0
2506 -2505 0
-324 2506 0
2505 -2506 324 0
-324 -2505 0
2507 -2506 0
-325 2507 0
2506 -2507 325 0
-325 -2506 0
2508 -2507 0
-326 2508 0
2507 -2508 326 0
-326 -2507 0
2509 -2508 0
2509 -327 0
2508 -2509 327 0
-2508 -327 0
2510 -2509 0
-328 2510 0
2509 -2510 328 0
-328 -2509 0
2511 -2510 0
-329 2511 0
2510 -2511 329 0
-329 -2510 0
2512 -2511 0
2511 -2512 330 0
-330 -2511 0
2513 -2512 0
-331 2513 0
2512 -2513 331 0
-331 -2512 0
2514 -2513 0
-332 2514 0
2513 -2514 332 0
-332 -2513 0
2515 -2514 0
-333 2515 0
2514 -2515 333 0
-333 -2514 0
2516 -2515 0
-334 2516 0
2515 -2516 334 0
-334 -2515 0
2517 -2516 0
-335 2517 0
2516 -2517 335 0
-335 -2516 0
2518 -2517 0
-336 2518 0
2517 -2518 336 0
-336 -2517 0
2519 -2518 0
-337 2519 0
2518 -2519 337 0
-337 -2518 0
2520 -2519 0
-338 2520 0
2519 -2520 338 0
-338 -2519 0
2521 -2520 0
2521 -339 0
2520 -2521 339 0
-339 -2520 0
2522 -2521 0
-340 2522 0
2521 -2522 340 0
-340 -2521 0
2523 -2522 0
2523 -341 0
2522 -2523 341 0
-341 -2522 0
2524 -2523 0
2523 -2524 342 0
-342 -2523 0
2525 -2524 0
2524 -2525 343 0
-343 -2524 0
2526 -2525 0
2525 -2526 344 0
-344 -2525 0
2527 -2526 0
2526 -2527 345 0
-345 -2526 0
2528 -2527 0
2527 -2528 346 0
-346 -2527 0
2529 -2528 0
2528 -2529 347 0
-347 -2528 0
2529 348 0
-348 -2529 0
-349 2530 0
-2530 349 0
-2530 2531 0
-350 2531 0
-2531 2530 350 0
-2531 2532 0
-351 2532 0
-2532 2531 351 0
-2532 2533 0
-352 2533 0
-2533 2532 352 0
-2533 2534 0
-353 2534 0
-2534 2533 353 0
-353 -2533 0
-2534 2535 0
-354 2535 0
-2535 2534 354 0
-354 -2534 0
-2535 2536 0
-355 2536 0
-2536 2535 355 0
-355 -2535 0
-2536 2537 0
-356 2537 0
-2537 2536 356 0
-2537 2538 0
-357 2538 0
-2538 2537 357 0
-357 -2537 0
-2538 2539 0
-358 2539 0
-2539 358 2538 0
-2539 2540 0
-359 2540 0
-2540 2539 359 0
-2540 2541 0
-360 2541 0
-2541 2540 360 0
-2541 2542 0
-361 2542 0
-2542 2541 361 0
-2542 2543 0
-362 2543 0
-2543 2542 362 0
-2543 2544 0
-363 2544 0
-2544 2543 363 0
-2544 2545 0
-364 2545 0
-2545 2544 364 0
-364 -2544 0
-2545 2546 0
-365 2546 0
-2546 2545 365 0
-2545 -365 0
-2546 2547 0
-366 2547 0
-2547 2546 366 0
-2546 -366 0
-2547 2548 0
-367 2548 0
-2548 2547 367 0
-367 -2547 0
-2548 2549 0
-368 2549 0
-2549 2548 368 0
-368 -2548 0
-2549 2550 0
-369 2550 0
-2550 2549 369 0
-2549 -369 0
-2550 2551 0
-370 2551 0
-2551 2550 370 0
-370 -2550 0
-2551 2552 0
-371 2552 0
2551 -2552 371 0
-2551 -371 0
-2552 2553 0
-372 2553 0
2552 -2553 372 0
-2552 -372 0
-2553 2554 0
-373 2554 0
2553 -2554 373 0
-373 -2553 0
-2554 2555 0
2555 -374 0
2554 -2555 374 0
-2554 -374 0
2556 -2555 0
-375 2556 0
2555 -2556 375 0
-375 -2555 0
2557 -2556 0
-376 2557 0
2556 -2557 376 0
-376 -2556 0
-2557 2558 0
-377 2558 0
2557 -2558 377 0
-377 -2557 0
-2558 2559 0
-378 2559 0
2558 -2559 378 0
-2558 -378 0
-2559 2560 0
-379 2560 0
2559 -2560 379 0
-2559 -379 0
-2560 2561 0
-380 2561 0
2560 -2561 380 0
-2560 -380 0
-2561 2562 0
-381 2562 0
2561 -2562 381 0
-381 -2561 0
-2562 2563 0
-382 2563 0
2562 382 -2563 0
-2563 2564 0
-383 2564 0
2563 -2564 383 0
-2564 2565 0
-384 2565 0
2564 384 -2565 0
-2565 2566 0
-385 2566 0
2565 -2566 385 0
-2566 2567 0
-386 2567 0
2566 386 -2567 0
-2567 2568 0
-387 2568 0
2567 387 -2568 0
2569 -2568 0
-388 2569 0
2568 -2569 388 0
-388 -2568 0
2570 -2569 0
-389 2570 0
2569 389 -2570 0
-389 -2569 0
2571 -2570 0
-390 2571 0
2570 -2571 390 0
-390 -2570 0
2572 -2571 0
-391 2572 0
2571 -2572 391 0
-391 -2571 0
2573 -2572 0
-392 2573 0
2572 -2573 392 0
-392 -2572 0
2574 -2573 0
2574 -393 0
2573 -2574 393 0
-393 -2573 0
2575 -2574 0
2574 -2575 394 0
-394 -2574 0
2576 -2575 0
2575 -2576 395 0
-395 -2575 0
2576 396 0
-396 -2576 0
-397 2577 0
-2577 397 0
-2577 2578 0
-398 2578 0
-2578 398 2577 0
-2577 -398 0
-2578 2579 0
-399 2579 0
-2579 2578 399 0
-399 -2578 0
-2579 2580 0
-400 2580 0
-2580 2579 400 0
-2579 -400 0
-2580 2581 0
-401 2581 0
-2581 2580 401 0
-401 -2580 0
-2581 2582 0
-402 2582 0
-2582 2581 402 0
-2581 -402 0
-2582 2583 0
-403 2583 0
-2583 2582 403 0
-403 -2582 0
-2583 2584 0
-404 2584 0
-2584 2583 404 0
-404 -2583 0
-2584 2585 0
-405 2585 0
-2585 2584 405 0
-405 -2584 0
-2585 2586 0
-406 2586 0
-2586 2585 406 0
-406 -2585 0
-2586 2587 0
-407 2587 0
-2587 2586 407 0
-407 -2586 0
-2587 2588 0
-408 2588 0
-2588 2587 408 0
-408 -2587 0
-2588 2589 0
-409 2589 0
-2589 2588 409 0
-409 -2588 0
-2589 2590 0
-410 2590 0
-2590 2589 410 0
-410 -2589 0
-2590 2591 0
-411 2591 0
-2591 2590 411 0
-411 -2590 0
-2591 2592 0
-412 2592 0
-2592 2591 412 0
-412 -2591 0
-2592 2593 0
-413 2593 0
-2593 2592 413 0
-413 -2592 0
-2593 2594 0
-414 2594 0
-2594 2593 414 0
-414 -2593 0
-2594 2595 0
-415 2595 0
-2595 2594 415 0
-415 -2594 0
-2595 2596 0
-416 2596 0
-2596 2595 416 0
-416 -2595 0
-2596 2597 0
-417 2597 0
-2597 2596 417 0
-417 -2596 0
-2597 2598 0
-418 2598 0
-2598 2597 418 0
-418 -2597 0
-2598 2599 0
-419 2599 0
-2599 2598 419 0
-419 -2598 0
-2599 2600 0
-420 2600 0
-2600 2599 420 0
-420 -2599 0
-2600 2601 0
-421 2601 0
-2601 2600 421 0
-421 -2600 0
-2601 2602 0
-422 2602 0
-2602 2601 422 0
-422 -2601 0
-2602 2603 0
-423 2603 0
-2603 2602 423 0
-423 -2602 0
-2603 2604 0
-424 2604 0
-2604 2603 424 0
-424 -2603 0
-2604 2605 0
-425 2605 0
-2605 2604 425 0
-425 -2604 0
-2605 2606 0
-426 2606 0
-2606 2605 426 0
-426 -2605 0
-2606 2607 0
-427 2607 0
-427 -2606 0
-2607 2608 0
-428 2608 0
-428 -2607 0
-2608 2609 0
-429 2609 0
-429 -2608 0
-2609 2610 0
-430 2610 0
-430 -2609 0
-2610 2611 0
-431 2611 0
-431 -2610 0
-2611 2612 0
-432 2612 0
-432 -2611 0
-2612 2613 0
-433 2613 0
-433 -2612 0
-2613 2614 0
-434 2614 0
-434 -2613 0
-2614 2615 0
-435 2615 0
-435 -2614 0
-2615 2616 0
-436 2616 0
-436 -2615 0
-2616 2617 0
-437 2617 0
-2616 -437 0
-2617 2618 0
-438 2618 0
-438 -2617 0
-2618 2619 0
-439 2619 0
-439 -2618 0
-2619 2620 0
-440 2620 0
-440 -2619 0
-2620 2621 0
-441 2621 0
-441 -2620 0
-2621 2622 0
-442 2622 0
-442 -2621 0
-2622 2623 0
-443 2623 0
-443 -2622 0
-2623 2624 0
-444 2624 0
-2623 -444 0
-2624 2625 0
-445 2625 0
-445 -2624 0
-2625 2626 0
-446 2626 0
-446 -2625 0
-2626 2627 0
-447 2627 0
-447 -2626 0
-2627 2628 0
-448 2628 0
-448 -2627 0
-2628 2629 0
-449 2629 0
-449 -2628 0
-2629 2630 0
-450 2630 0
-450 -2629 0
-2630 2631 0
-451 2631 0
-451 -2630 0
-2631 2632 0
-452 2632 0
-452 -2631 0
-2632 2633 0
2633 -453 0
-2632 -453 0
-2633 2634 0
-454 2634 0
-454 -2633 0
-2634 2635 0
-455 2635 0
-455 -2634 0
-2635 2636 0
-456 2636 0
-456 -2635 0
-2636 2637 0
-457 2637 0
-457 -2636 0
-2637 2638 0
-458 2638 0
-458 -2637 0
-2638 2639 0
-459 2639 0
-459 -2638 0
-2639 2640 0
-460 2640 0
-460 -2639 0
-2640 2641 0
-461 2641 0
-461 -2640 0
-2641 2642 0
-462 2642 0
-462 -2641 0
-2642 2643 0
-463 2643 0
-463 -2642 0
-2643 2644 0
-464 2644 0
-464 -2643 0
-2644 2645 0
-465 2645 0
-465 -2644 0
-2645 2646 0
-466 2646 0
-466 -2645 0
-2646 2647 0
-467 2647 0
-2646 -467 0
-2647 2648 0
-468 2648 0
-468 -2647 0
-2648 2649 0
-469 2649 0
-2648 -469 0
-2649 2650 0
-470 2650 0
-470 -2649 0
-2650 2651 0
-471 2651 0
-471 -2650 0
-2651 2652 0
-472 2652 0
-472 -2651 0
-2652 2653 0
-473 2653 0
-473 -2652 0
-2653 2654 0
-474 2654 0
-474 -2653 0
-2654 2655 0
-475 2655 0
-475 -2654 0
-2655 2656 0
-476 2656 0
-476 -2655 0
-2656 2657 0
-477 2657 0
-2656 -477 0
-2657 2658 0
-478 2658 0
-2657 -478 0
-2658 2659 0
-479 2659 0
-479 -2658 0
-2659 2660 0
-480 2660 0
-480 -2659 0
-2660 2661 0
-481 2661 0
-481 -2660 0
-2661 2662 0
-482 2662 0
-482 -2661 0
-2662 2663 0
-483 2663 0
-483 -2662 0
-2663 2664 0
-484 2664 0
-484 -2663 0
-2664 2665 0
-485 2665 0
2664 -2665 485 0
-485 -2664 0
-2665 2666 0
2666 -486 0
2665 -2666 486 0
-486 -2665 0
-2666 2667 0
-487 2667 0
-487 -2666 0
-2667 2668 0
-488 2668 0
-488 -2667 0
-2668 2669 0
-489 2669 0
-489 -2668 0
-2669 2670 0
-490 2670 0
-2669 -490 0
-2670 2671 0
-491 2671 0
-491 -2670 0
-2671 2672 0
-492 2672 0
-492 -2671 0
-2672 2673 0
-493 2673 0
-493 -2672 0
-2673 2674 0
-494 2674 0
-494 -2673 0
-2674 2675 0
-495 2675 0
-2674 -495 0
-2675 2676 0
-496 2676 0
-496 -2675 0
-2676 2677 0
-497 2677 0
-497 -2676 0
-2677 2678 0
-498 2678 0
-498 -2677 0
-2678 2679 0
-499 2679 0
-499 -2678 0
-2679 2680 0
-500 2680 0
-500 -2679 0
-2680 2681 0
-501 2681 0
-501 -2680 0
-2681 2682 0
-502 2682 0
-502 -2681 0
2683 -2682 0
2683 -503 0
-2682 -503 0
2684 -2683 0
-504 2684 0
-504 -2683 0
2685 -2684 0
-505 2685 0
-505 -2684 0
2686 -2685 0
-506 2686 0
-506 -2685 0
2687 -2686 0
-507 2687 0
-507 -2686 0
2688 -2687 0
-508 2688 0
-508 -2687 0
2689 -2688 0
2689 -509 0
-2688 -509 0
2690 -2689 0
-510 2690 0
-510 -2689 0
2691 -2690 0
2691 -511 0
-511 -2690 0
2692 -2691 0
-512 2692 0
-512 -2691 0
2693 -2692 0
-513 2693 0
-513 -2692 0
2694 -2693 0
2694 -514 0
-514 -2693 0
2695 -2694 0
-515 2695 0
-515 -2694 0
2696 -2695 0
2696 -516 0
-516 -2695 0
2697 -2696 0
-517 2697 0
-517 -2696 0
2698 -2697 0
2698 -518 0
-518 -2697 0
2699 -2698 0
-519 2699 0
-519 -2698 0
2700 -2699 0
-520 2700 0
-520 -2699 0
2701 -2700 0
-521 2701 0
-521 -2700 0
2702 -2701 0
-522 2702 0
-522 -2701 0
2703 -2702 0
2703 -523 0
-523 -2702 0
2704 -2703 0
2704 -524 0
-524 -2703 0
2705 -2704 0
-525 2705 0
-525 -2704 0
2706 -2705 0
-526 2706 0
-526 -2705 0
2707 -2706 0
2707 -527 0
-2706 -527 0
2708 -2707 0
-528 2708 0
-528 -2707 0
2709 -2708 0
-529 2709 0
-529 -2708 0
2710 -2709 0
-530 2710 0
-530 -2709 0
2711 -2710 0
-531 2711 0
2710 531 -2711 0
-531 -2710 0
2712 -2711 0
-532 2712 0
2711 -2712 532 0
-532 -2711 0
2713 -2712 0
-533 2713 0
2712 -2713 533 0
-533 -2712 0
2714 -2713 0
-534 2714 0
2713 -2714 534 0
-534 -2713 0
2715 -2714 0
2714 -2715 535 0
-535 -2714 0
2716 -2715 0
2715 -2716 536 0
-536 -2715 0
2717 -2716 0
-537 2717 0
2716 -2717 537 0
-537 -2716 0
2718 -2717 0
-538 2718 0
2717 -2718 538 0
-538 -2717 0
2719 -2718 0
2718 -2719 539 0
-539 -2718 0
2720 -2719 0
2719 -2720 540 0
-540 -2719 0
2721 -2720 0
2720 -2721 541 0
-541 -2720 0
2722 -2721 0
2721 -2722 542 0
-542 -2721 0
2723 -2722 0
2722 -2723 543 0
-2722 -543 0
2724 -2723 0
2723 -2724 544 0
-2723 -544 0
2725 -2724 0
2724 -2725 545 0
-545 -2724 0
2725 546 0
-546 -2725 0
-547 2726 0
-2726 547 0
-2726 2727 0
-548 2727 0
-2727 2726 548 0
-2726 -548 0
-2727 2728 0
-549 2728 0
-2728 549 2727 0
-549 -2727 0
-2728 2729 0
-550 2729 0
-2729 2728 550 0
-2729 2730 0
-551 2730 0
-2730 2729 551 0
-2729 -551 0
-2730 2731 0
-552 2731 0
-2731 2730 552 0
-552 -2730 0
-2731 2732 0
-553 2732 0
-2732 2731 553 0
-553 -2731 0
-2732 2733 0
-554 2733 0
-2733 2732 554 0
-554 -2732 0
-2733 2734 0
-2734 2733 555 0
-555 -2733 0
-2734 2735 0
-556 2735 0
-2735 2734 556 0
-556 -2734 0
-2735 2736 0
-557 2736 0
-2736 2735 557 0
-557 -2735 0
-2736 2737 0
2737 -558 0
-2737 2736 558 0
-2736 -558 0
2738 -2737 0
-559 2738 0
-2738 2737 559 0
-559 -2737 0
2739 -2738 0
-560 2739 0
-2739 2738 560 0
-560 -2738 0
2740 -2739 0
-561 2740 0
-2740 2739 561 0
-561 -2739 0
2741 -2740 0
-562 2741 0
-2741 2740 562 0
-562 -2740 0
2742 -2741 0
-563 2742 0
-2742 2741 563 0
-563 -2741 0
2743 -2742 0
-564 2743 0
-2743 2742 564 0
-564 -2742 0
2744 -2743 0
-565 2744 0
-2744 2743 565 0
-565 -2743 0
2745 -2744 0
-566 2745 0
-2745 2744 566 0
-566 -2744 0
2746 -2745 0
-567 2746 0
-2746 2745 567 0
-567 -2745 0
2747 -2746 0
-568 2747 0
-2747 2746 568 0
-568 -2746 0
2748 -2747 0
-569 2748 0
-2748 2747 569 0
-569 -2747 0
2749 -2748 0
-570 2749 0
-2749 2748 570 0
-570 -2748 0
2750 -2749 0
-571 2750 0
2749 -2750 571 0
-571 -2749 0
2751 -2750 0
-572 2751 0
2750 -2751 572 0
-572 -2750 0
2752 -2751 0
2751 -2752 573 0
-573 -2751 0
2753 -2752 0
-574 2753 0
2752 -2753 574 0
-574 -2752 0
2754 -2753 0
-575 2754 0
2753 575 -2754 0
-575 -2753 0
2755 -2754 0
-576 2755 0
2754 -2755 576 0
-576 -2754 0
2756 -2755 0
2755 -2756 577 0
-577 -2755 0
2757 -2756 0
-578 2757 0
2756 -2757 578 0
-578 -2756 0
2758 -2757 0
2757 -2758 579 0
-579 -2757 0
2759 -2758 0
2758 -2759 580 0
-580 -2758 0
2760 -2759 0
2759 -2760 581 0
-581 -2759 0
2761 -2760 0
2760 -2761 582 0
-582 -2760 0
2762 -2761 0
2761 -2762 583 0
-583 -2761 0
2763 -2762 0
-584 2763 0
2762 -2763 584 0
-584 -2762 0
2764 -2763 0
2763 -2764 585 0
-585 -2763 0
2765 -2764 0
-586 2765 0
2764 -2765 586 0
-586 -2764 0
2766 -2765 0
2765 -2766 587 0
-2765 -587 0
2767 -2766 0
2766 -2767 588 0
-588 -2766 0
2768 -2767 0
2767 -2768 589 0
-2767 -589 0
2769 -2768 0
2768 -2769 590 0
-590 -2768 0
2770 -2769 0
2769 -2770 591 0
-591 -2769 0
2771 -2770 0
2770 -2771 592 0
-592 -2770 0
2772 -2771 0
2771 -2772 593 0
-593 -2771 0
2772 594 0
-594 -2772 0
-595 2773 0
-2773 595 0
-2773 2774 0
-596 2774 0
-2774 596 2773 0
-2774 2775 0
-597 2775 0
-2775 597 2774 0
-2775 2776 0
-598 2776 0
-2776 598 2775 0
-598 -2775 0
-2776 2777 0
-599 2777 0
-2777 2776 599 0
-2777 2778 0
-600 2778 0
-2778 2777 600 0
-2778 2779 0
-601 2779 0
-2779 2778 601 0
-2779 2780 0
-602 2780 0
-2780 2779 602 0
-2780 2781 0
-603 2781 0
-2781 2780 603 0
-2781 2782 0
-604 2782 0
-2782 2781 604 0
-2782 2783 0
-605 2783 0
-2783 2782 605 0
-2783 2784 0
-606 2784 0
-2784 2783 606 0
-2784 2785 0
-607 2785 0
-2785 2784 607 0
-2785 2786 0
-608 2786 0
-2786 2785 608 0
-2786 2787 0
-609 2787 0
-2787 2786 609 0
-2787 2788 0
-610 2788 0
-2788 2787 610 0
-2788 2789 0
-611 2789 0
-2789 2788 611 0
-2789 2790 0
-612 2790 0
-2790 2789 612 0
-2790 2791 0
-613 2791 0
-2791 2790 613 0
-2791 2792 0
-614 2792 0
-2792 2791 614 0
-2792 2793 0
-615 2793 0
-2793 2792 615 0
-2793 2794 0
-616 2794 0
-2794 2793 616 0
-2794 2795 0
-617 2795 0
-2795 2794 617 0
-2795 2796 0
-618 2796 0
-2796 2795 618 0
-2796 2797 0
-619 2797 0
-2797 2796 619 0
-2797 2798 0
-620 2798 0
-2798 2797 620 0
-2798 2799 0
-621 2799 0
-2799 2798 621 0
-2799 2800 0
-622 2800 0
-2800 2799 622 0
-2800 2801 0
-623 2801 0
-2801 2800 623 0
-2801 2802 0
-624 2802 0
-2802 2801 624 0
-2802 2803 0
-625 2803 0
-2803 2802 625 0
-2803 2804 0
-626 2804 0
-2804 2803 626 0
-2804 2805 0
-627 2805 0
-2805 2804 627 0
-2805 2806 0
-628 2806 0
-2806 2805 628 0
-2806 2807 0
-629 2807 0
-2807 2806 629 0
-2807 2808 0
-630 2808 0
-2808 2807 630 0
-2808 2809 0
-631 2809 0
-2809 2808 631 0
-2809 2810 0
-632 2810 0
-2810 2809 632 0
-2810 2811 0
-633 2811 0
-2811 2810 633 0
-2811 2812 0
-634 2812 0
-2812 2811 634 0
-2812 2813 0
-635 2813 0
-2813 2812 635 0
-2813 2814 0
-636 2814 0
-2814 2813 636 0
-2814 2815 0
-637 2815 0
-2815 2814 637 0
-2815 2816 0
-638 2816 0
-2816 2815 638 0
-2816 2817 0
-639 2817 0
-2817 2816 639 0
-2817 2818 0
-640 2818 0
-2818 2817 640 0
-640 -2817 0
-2818 2819 0
-641 2819 0
-2819 2818 641 0
-2819 2820 0
-642 2820 0
-2820 2819 642 0
-642 -2819 0
-2820 2821 0
-643 2821 0
-2821 2820 643 0
-2821 2822 0
-644 2822 0
-2822 2821 644 0
-2822 2823 0
-645 2823 0
-2823 2822 645 0
-2823 2824 0
-646 2824 0
-2824 2823 646 0
-2824 2825 0
-647 2825 0
-2825 2824 647 0
-2825 2826 0
-648 2826 0
-2826 2825 648 0
-2826 2827 0
-649 2827 0
-2827 2826 649 0
-2827 2828 0
-650 2828 0
-2828 2827 650 0
-2828 2829 0
-651 2829 0
-2829 2828 651 0
-2829 2830 0
-652 2830 0
-2830 2829 652 0
-2830 2831 0
-653 2831 0
-2831 2830 653 0
-2831 2832 0
-654 2832 0
-2832 2831 654 0
-2832 2833 0
-655 2833 0
-2833 2832 655 0
-2833 2834 0
-656 2834 0
-2834 2833 656 0
-2834 2835 0
-657 2835 0
-2835 2834 657 0
-2835 2836 0
-658 2836 0
-2836 2835 658 0
-2836 2837 0
-659 2837 0
-2837 2836 659 0
-2837 2838 0
-660 2838 0
-2838 2837 660 0
-2838 2839 0
-661 2839 0
-2839 2838 661 0
-2839 2840 0
-662 2840 0
-2840 2839 662 0
-2840 2841 0
-663 2841 0
-2841 2840 663 0
-2841 2842 0
-664 2842 0
-2842 2841 664 0
-664 -2841 0
-2842 2843 0
-665 2843 0
-2843 2842 665 0
-2843 2844 0
-666 2844 0
-2844 2843 666 0
-666 -2843 0
-2844 2845 0
-667 2845 0
-2845 2844 667 0
-667 -2844 0
-2845 2846 0
-668 2846 0
-2846 2845 668 0
-2846 2847 0
-669 2847 0
2846 -2847 669 0
-669 -2846 0
-2847 2848 0
-670 2848 0
-2848 2847 670 0
-2848 2849 0
2849 -671 0
2848 -2849 671 0
2850 -2849 0
-672 2850 0
2849 -2850 672 0
-672 -2849 0
2851 -2850 0
-673 2851 0
2850 -2851 673 0
-673 -2850 0
2852 -2851 0
-674 2852 0
2851 -2852 674 0
-674 -2851 0
2853 -2852 0
-675 2853 0
2852 -2853 675 0
-675 -2852 0
2854 -2853 0
-676 2854 0
2853 -2854 676 0
-676 -2853 0
2855 -2854 0
-677 2855 0
2854 -2855 677 0
2856 -2855 0
-678 2856 0
2855 -2856 678 0
-678 -2855 0
2857 -2856 0
-679 2857 0
2856 -2857 679 0
2858 -2857 0
-680 2858 0
2857 -2858 680 0
2859 -2858 0
-681 2859 0
2858 -2859 681 0
2860 -2859 0
-682 2860 0
2859 -2860 682 0
2861 -2860 0
-683 2861 0
2860 -2861 683 0
2862 -2861 0
-684 2862 0
2861 -2862 684 0
2863 -2862 0
-685 2863 0
2862 -2863 685 0
-685 -2862 0
2864 -2863 0
-686 2864 0
2863 -2864 686 0
2865 -2864 0
-687 2865 0
2864 -2865 687 0
-687 -2864 0
2866 -2865 0
-688 2866 0
2865 -2866 688 0
2867 -2866 0
2866 -2867 689 0
2868 -2867 0
-690 2868 0
2867 -2868 690 0
2869 -2868 0
-691 2869 0
2868 -2869 691 0
2870 -2869 0
-692 2870 0
2869 -2870 692 0
2871 -2870 0
-693 2871 0
2870 -2871 693 0
2872 -2871 0
-694 2872 0
2871 -2872 694 0
2873 -2872 0
-695 2873 0
2872 -2873 695 0
2874 -2873 0
-696 2874 0
2873 -2874 696 0
2875 -2874 0
-697 2875 0
2874 -2875 697 0
-697 -2874 0
2876 -2875 0
-698 2876 0
2875 -2876 698 0
2877 -2876 0
-699 2877 0
2876 -2877 699 0
2878 -2877 0
-700 2878 0
2877 -2878 700 0
-700 -2877 0
2879 -2878 0
-701 2879 0
2878 -2879 701 0
-701 -2878 0
2880 -2879 0
2879 -2880 702 0
2881 -2880 0
-703 2881 0
2880 -2881 703 0
-703 -2880 0
2882 -2881 0
2881 -2882 704 0
2883 -2882 0
-705 2883 0
2882 -2883 705 0
2884 -2883 0
-706 2884 0
2883 -2884 706 0
-706 -2883 0
2885 -2884 0
-707 2885 0
2884 -2885 707 0
-707 -2884 0
2886 -2885 0
-708 2886 0
2885 -2886 708 0
-708 -2885 0
2887 -2886 0
2886 -2887 709 0
-709 -2886 0
2888 -2887 0
-710 2888 0
2887 -2888 710 0
-710 -2887 0
2889 -2888 0
2888 -2889 711 0
-711 -2888 0
2890 -2889 0
2889 -2890 712 0
-712 -2889 0
2891 -2890 0
2890 -2891 713 0
-713 -2890 0
2892 -2891 0
2891 -2892 714 0
-714 -2891 0
2893 -2892 0
2892 -2893 715 0
-715 -2892 0
2894 -2893 0
-716 2894 0
2893 -2894 716 0
-716 -2893 0
2895 -2894 0
-717 2895 0
2894 -2895 717 0
-717 -2894 0
2896 -2895 0
-718 2896 0
2895 -2896 718 0
-718 -2895 0
2897 -2896 0
-719 2897 0
2896 -2897 719 0
-719 -2896 0
2898 -2897 0
-720 2898 0
2897 720 -2898 0
-720 -2897 0
2899 -2898 0
2898 -2899 721 0
-721 -2898 0
2900 -2899 0
2899 -2900 722 0
-722 -2899 0
2901 -2900 0
2900 -2901 723 0
-723 -2900 0
2902 -2901 0
2901 -2902 724 0
-724 -2901 0
2903 -2902 0
2902 -2903 725 0
-725 -2902 0
2904 -2903 0
2903 -2904 726 0
-726 -2903 0
2905 -2904 0
2904 -2905 727 0
-727 -2904 0
2906 -2905 0
2905 -2906 728 0
-728 -2905 0
2907 -2906 0
2906 -2907 729 0
2908 -2907 0
2907 -2908 730 0
-730 -2907 0
2909 -2908 0
2908 -2909 731 0
-731 -2908 0
2910 -2909 0
2909 -2910 732 0
-732 -2909 0
2911 -2910 0
2910 -2911 733 0
-733 -2910 0
2912 -2911 0
2911 -2912 734 0
-734 -2911 0
2913 -2912 0
2912 -2913 735 0
-735 -2912 0
2914 -2913 0
2913 -2914 736 0
-736 -2913 0
2915 -2914 0
2914 -2915 737 0
-737 -2914 0
2916 -2915 0
2915 -2916 738 0
-738 -2915 0
2917 -2916 0
2916 -2917 739 0
-739 -2916 0
2918 -2917 0
2917 -2918 740 0
-740 -2917 0
2919 -2918 0
2918 -2919 741 0
-741 -2918 0
2920 -2919 0
2919 -2920 742 0
-742 -2919 0
2921 -2920 0
2920 -2921 743 0
-743 -2920 0
2921 744 0
-744 -2921 0
-896 3072 0
-3072 3073 0
-897 3073 0
-897 -3072 0
-3073 3074 0
-898 3074 0
-898 -3073 0
-3074 3075 0
-899 3075 0
-899 -3074 0
-3075 3076 0
-3076 3077 0
-3077 3078 0
-3078 3079 0
-903 3079 0
-903 -3078 0
-3079 3080 0
-3080 3081 0
-905 3081 0
-905 -3080 0
-3081 3082 0
-3082 3083 0
-3083 3084 0
-3084 3085 0
-909 3085 0
-909 -3084 0
-3085 3086 0
-910 3086 0
-910 -3085 0
-3086 3087 0
-911 3087 0
-3086 -911 0
-3087 3088 0
-3088 3089 0
-913 3089 0
-913 -3088 0
-3089 3090 0
-3090 3091 0
-915 3091 0
-915 -3090 0
-3091 3092 0
-916 3092 0
-916 -3091 0
-3092 3093 0
-3093 3094 0
-918 3094 0
-918 -3093 0
-3094 3095 0
-919 3095 0
-919 -3094 0
-3095 3096 0
-3096 3097 0
-921 3097 0
-921 -3096 0
-3097 3098 0
-3098 3099 0
-3099 3100 0
-924 -3099 0
-3100 3101 0
-3101 3102 0
-3102 3103 0
-3103 3104 0
-928 -3103 0
-3104 3105 0
-3105 3106 0
-930 -3105 0
-3106 3107 0
-3107 3108 0
-3108 3109 0
-3109 3110 0
-934 -3109 0
-3110 3111 0
-3111 3112 0
-936 -3111 0
-3112 3113 0
-3113 3114 0
-938 -3113 0
-3114 3115 0
-3115 3116 0
-940 -3115 0
-3116 3117 0
-3117 3118 0
-3118 3119 0
-3119 3120 0
-944 -3119 0
-3120 3121 0
-3121 3122 0
-946 -3121 0
-3122 3123 0
-3123 3124 0
-3124 3125 0
3125 -949 0
3126 -3125 0
-950 3126 0
3127 -3126 0
3127 -951 0
-3126 -951 0
3128 -3127 0
-952 3128 0
-952 -3127 0
3129 -3128 0
-953 3129 0
-953 -3128 0
3130 -3129 0
3131 -3130 0
-955 -3130 0
3132 -3131 0
-956 3132 0
-956 -3131 0
3133 -3132 0
-957 3133 0
-957 -3132 0
3134 -3133 0
3134 -958 0
-3133 -958 0
3135 -3134 0
-959 3135 0
-959 -3134 0
3136 -3135 0
3137 -3136 0
3138 -3137 0
-962 3138 0
-962 -3137 0
3139 -3138 0
-963 -3138 0
3140 -3139 0
3140 -964 0
-3139 -964 0
3141 -3140 0
-965 3141 0
3142 -3141 0
3142 -966 0
-3141 -966 0
3143 -3142 0
-967 3143 0
-967 -3142 0
3144 -3143 0
-968 3144 0
-968 -3143 0
3145 -3144 0
3146 -3145 0
-970 -3145 0
3147 -3146 0
3148 -3147 0
3149 -3148 0
-973 3149 0
-973 -3148 0
3150 -3149 0
3150 -974 0
-974 -3149 0
3151 -3150 0
3152 -3151 0
3153 -3152 0
3154 -3153 0
3155 -3154 0
3155 -979 0
-979 -3154 0
3156 -3155 0
-980 3156 0
-980 -3155 0
3157 -3156 0
-981 3157 0
-981 -3156 0
3158 -3157 0
-982 3158 0
-982 -3157 0
3159 -3158 0
3160 -3159 0
-3160 3161 0
-985 3161 0
-985 -3160 0
-3161 3162 0
3162 -986 0
-986 -3161 0
3163 -3162 0
3163 -987 0
-3162 -987 0
3164 -3163 0
3164 -988 0
-988 -3163 0
3165 -3164 0
-989 -3164 0
3166 -3165 0
-990 -3165 0
3167 -3166 0
-991 -3166 0
3168 -3167 0
-992 -3167 0
3169 -3168 0
-993 -3168 0
3170 -3169 0
-994 -3169 0
3171 -3170 0
-995 -3170 0
3172 -3171 0
3173 -3172 0
-997 -3172 0
3174 -3173 0
3174 -998 0
-998 -3173 0
3175 -3174 0
-999 -3174 0
3176 -3175 0
-3175 -1000 0
3177 -3176 0
-3176 -1001 0
3178 -3177 0
3179 -3178 0
-1003 -3178 0
3180 -3179 0
3181 -3180 0
-3181 3182 0
-3182 3183 0
-3183 3184 0
-1008 -3183 0
-3184 3185 0
-3184 -1009 0
-3185 3186 0
-3186 3187 0
-1011 -3186 0
3188 -3187 0
-3187 -1012 0
3189 -3188 0
-1013 -3188 0
3190 -3189 0
-1014 -3189 0
3191 -3190 0
-1015 -3190 0
3192 -3191 0
-1016 -3191 0
3193 -3192 0
-1017 -3192 0
3194 -3193 0
-1018 -3193 0
3195 -3194 0
3196 -3195 0
-1020 -3195 0
3197 -3196 0
3198 -3197 0
-1022 -3197 0
3199 -3198 0
3200 -3199 0
3201 -3200 0
-1025 -3200 0
3202 -3201 0
-1026 -3201 0
3203 -3202 0
3204 -3203 0
-1028 -3203 0
3205 -3204 0
3206 -3205 0
-1030 -3205 0
3207 -3206 0
3208 -3207 0
3209 -3208 0
3210 -3209 0
3211 -3210 0
3212 -3211 0
-1036 -3211 0
3213 -3212 0
3214 -3213 0
-1038 -3213 0
3215 -3214 0
-1039 -3214 0
3216 -3215 0
-1040 -3215 0
3217 -3216 0
3218 -3217 0
3217 1042 -3218 0
-1042 -3217 0
3219 -3218 0
3218 -3219 1043 0
3219 1044 0
-1044 -3219 0
-1045 3220 0
-3220 1045 0
-3220 3221 0
-1046 3221 0
-3221 3220 1046 0
-3221 3222 0
-1047 3222 0
-3222 3221 1047 0
-3221 -1047 0
-3222 3223 0
-1048 3223 0
-3223 3222 1048 0
-1048 -3222 0
-3223 3224 0
-1049 3224 0
-3224 1049 3223 0
-1049 -3223 0
-3224 3225 0
-1050 3225 0
-3225 3224 1050 0
-3225 3226 0
-1051 3226 0
-3226 3225 1051 0
-3226 3227 0
-1052 3227 0
-3227 3226 1052 0
-3227 3228 0
-1053 3228 0
-3228 3227 1053 0
-1053 -3227 0
-3228 3229 0
-1054 3229 0
-3229 3228 1054 0
-1054 -3228 0
-3229 3230 0
-1055 3230 0
-3230 3229 1055 0
-1055 -3229 0
-3230 3231 0
-1056 3231 0
-3231 3230 1056 0
-1056 -3230 0
-3231 3232 0
-1057 3232 0
-3232 3231 1057 0
-1057 -3231 0
-3232 3233 0
-1058 3233 0
-3233 3232 1058 0
-3233 3234 0
-1059 3234 0
-3234 3233 1059 0
-1059 -3233 0
-3234 3235 0
-1060 3235 0
-3235 3234 1060 0
-1060 -3234 0
-3235 3236 0
-1061 3236 0
-3236 3235 1061 0
-1061 -3235 0
-3236 3237 0
-1062 3237 0
-3237 3236 1062 0
-1062 -3236 0
-3237 3238 0
-1063 3238 0
-3238 3237 1063 0
-1063 -3237 0
-3238 3239 0
-1064 3239 0
-3239 3238 1064 0
-1064 -3238 0
-3239 3240 0
-1065 3240 0
-3240 3239 1065 0
-1065 -3239 0
-3240 3241 0
-1066 3241 0
-3241 3240 1066 0
-1066 -3240 0
-3241 3242 0
-1067 3242 0
-3242 3241 1067 0
-1067 -3241 0
-3242 3243 0
-1068 3243 0
-3243 3242 1068 0
-1068 -3242 0
-3243 3244 0
-1069 3244 0
-3244 3243 1069 0
-1069 -3243 0
-3244 3245 0
-1070 3245 0
-3245 3244 1070 0
-1070 -3244 0
-3245 3246 0
-1071 3246 0
-3246 3245 1071 0
-1071 -3245 0
-3246 3247 0
-1072 3247 0
-3247 3246 1072 0
-1072 -3246 0
-3247 3248 0
-1073 3248 0
-3248 3247 1073 0
-1073 -3247 0
-3248 3249 0
-1074 3249 0
-3249 3248 1074 0
-1074 -3248 0
-3249 3250 0
-1075 3250 0
-3250 1075 3249 0
-1075 -3249 0
-3250 3251 0
-1076 3251 0
-3251 3250 1076 0
-1076 -3250 0
-3251 3252 0
-1077 3252 0
-3252 3251 1077 0
-1077 -3251 0
-3252 3253 0
-1078 3253 0
-3253 3252 1078 0
-1078 -3252 0
-3253 3254 0
-1079 3254 0
-3254 3253 1079 0
-1079 -3253 0
-3254 3255 0
-1080 3255 0
-3255 3254 1080 0
-1080 -3254 0
-3255 3256 0
-1081 3256 0
-3256 3255 1081 0
-1081 -3255 0
-3256 3257 0
-1082 3257 0
-3257 3256 1082 0
-1082 -3256 0
-3257 3258 0
-1083 3258 0
-3258 3257 1083 0
-1083 -3257 0
-3258 3259 0
-1084 3259 0
-3259 3258 1084 0
-1084 -3258 0
-3259 3260 0
-1085 3260 0
-3260 3259 1085 0
-1085 -3259 0
-3260 3261 0
-1086 3261 0
-3261 3260 1086 0
-1086 -3260 0
-3261 3262 0
-1087 3262 0
-3262 3261 1087 0
-1087 -3261 0
-3262 3263 0
-1088 3263 0
-3263 3262 1088 0
-1088 -3262 0
-3263 3264 0
-1089 3264 0
-3264 3263 1089 0
-1089 -3263 0
-3264 3265 0
-1090 3265 0
-3265 3264 1090 0
-1090 -3264 0
-3265 3266 0
-1091 3266 0
-3266 3265 1091 0
-1091 -3265 0
-3266 3267 0
-1092 3267 0
-3267 3266 1092 0
-1092 -3266 0
-3267 3268 0
-1093 3268 0
-3268 3267 1093 0
-1093 -3267 0
-3268 3269 0
-1094 3269 0
-3269 3268 1094 0
-1094 -3268 0
-3269 3270 0
-1095 3270 0
-3270 3269 1095 0
-1095 -3269 0
-3270 3271 0
-1096 3271 0
-3271 3270 1096 0
-1096 -3270 0
-3271 3272 0
-1097 3272 0
-3272 3271 1097 0
-1097 -3271 0
-3272 3273 0
-1098 3273 0
-3273 3272 1098 0
-1098 -3272 0
-3273 3274 0
-1099 3274 0
-3274 3273 1099 0
-1099 -3273 0
-3274 3275 0
-1100 3275 0
-3275 3274 1100 0
-1100 -3274 0
-3275 3276 0
-1101 3276 0
-3276 3275 1101 0
-1101 -3275 0
-3276 3277 0
-1102 3277 0
-3277 3276 1102 0
-1102 -3276 0
-3277 3278 0
-1103 3278 0
-3278 3277 1103 0
-1103 -3277 0
-3278 3279 0
-1104 3279 0
3278 -3279 1104 0
-1104 -3278 0
-3279 3280 0
-1105 3280 0
-3280 3279 1105 0
-1105 -3279 0
-3280 3281 0
-1106 3281 0
-3281 3280 1106 0
-1106 -3280 0
-3281 3282 0
-1107 3282 0
-3282 3281 1107 0
-1107 -3281 0
-3282 3283 0
-1108 3283 0
3282 -3283 1108 0
-3282 -1108 0
-3283 3284 0
-1109 3284 0
-3284 3283 1109 0
-1109 -3283 0
-3284 3285 0
-1110 3285 0
3284 -3285 1110 0
-1110 -3284 0
-3285 3286 0
-1111 3286 0
3285 -3286 1111 0
-1111 -3285 0
-3286 3287 0
-1112 3287 0
3286 -3287 1112 0
-1112 -3286 0
-3287 3288 0
-1113 3288 0
3287 -3288 1113 0
-1113 -3287 0
-3288 3289 0
-1114 3289 0
3288 -3289 1114 0
-1114 -3288 0
-3289 3290 0
-1115 3290 0
3289 -3290 1115 0
-1115 -3289 0
-3290 3291 0
-1116 3291 0
3290 -3291 1116 0
-1116 -3290 0
-3291 3292 0
-1117 3292 0
3291 -3292 1117 0
-1117 -3291 0
-3292 3293 0
-1118 3293 0
3292 -3293 1118 0
-1118 -3292 0
-3293 3294 0
-1119 3294 0
3293 -3294 1119 0
-3293 -1119 0
-3294 3295 0
-1120 3295 0
3294 -3295 1120 0
-1120 -3294 0
-3295 3296 0
-1121 3296 0
3295 -3296 1121 0
-1121 -3295 0
-3296 3297 0
-1122 3297 0
3296 -3297 1122 0
-1122 -3296 0
-3297 3298 0
-1123 3298 0
3297 -3298 1123 0
-1123 -3297 0
-3298 3299 0
-1124 3299 0
3298 -3299 1124 0
-1124 -3298 0
-3299 3300 0
-1125 3300 0
3299 -3300 1125 0
-1125 -3299 0
-3300 3301 0
-1126 3301 0
3300 -3301 1126 0
-1126 -3300 0
-3301 3302 0
-1127 3302 0
3301 -3302 1127 0
-1127 -3301 0
-3302 3303 0
-1128 3303 0
3302 -3303 1128 0
-1128 -3302 0
-3303 3304 0
-1129 3304 0
3303 -3304 1129 0
-1129 -3303 0
-3304 3305 0
-1130 3305 0
3304 -3305 1130 0
-1130 -3304 0
-3305 3306 0
-1131 3306 0
3305 -3306 1131 0
-1131 -3305 0
-3306 3307 0
-1132 3307 0
3306 -3307 1132 0
-1132 -3306 0
-3307 3308 0
-1133 3308 0
3307 -3308 1133 0
-1133 -3307 0
-3308 3309 0
-1134 3309 0
3308 -3309 1134 0
-1134 -3308 0
3310 -3309 0
3310 -1135 0
3309 -3310 1135 0
-1135 -3309 0
3311 -3310 0
-1136 3311 0
3310 -3311 1136 0
-1136 -3310 0
3312 -3311 0
-1137 3312 0
3311 -3312 1137 0
-1137 -3311 0
3313 -3312 0
-1138 3313 0
3312 -3313 1138 0
-1138 -3312 0
3314 -3313 0
-1139 3314 0
3313 -3314 1139 0
-1139 -3313 0
3315 -3314 0
-1140 3315 0
3314 -3315 1140 0
-1140 -3314 0
3316 -3315 0
-1141 3316 0
3315 -3316 1141 0
-1141 -3315 0
3317 -3316 0
-1142 3317 0
3316 -3317 1142 0
-1142 -3316 0
3318 -3317 0
-1143 3318 0
3317 -3318 1143 0
-1143 -3317 0
3319 -3318 0
-1144 3319 0
3318 -3319 1144 0
-1144 -3318 0
3320 -3319 0
-1145 3320 0
3319 -3320 1145 0
-1145 -3319 0
3321 -3320 0
-1146 3321 0
3320 -3321 1146 0
-1146 -3320 0
3322 -3321 0
-1147 3322 0
3321 -3322 1147 0
-1147 -3321 0
3323 -3322 0
-1148 3323 0
3322 -3323 1148 0
-1148 -3322 0
3324 -3323 0
3324 -1149 0
3323 -3324 1149 0
-1149 -3323 0
3325 -3324 0
-1150 3325 0
3324 -3325 1150 0
-1150 -3324 0
3326 -3325 0
-1151 3326 0
3325 -3326 1151 0
-1151 -3325 0
3327 -3326 0
-1152 3327 0
3326 -3327 1152 0
-1152 -3326 0
3328 -3327 0
-1153 3328 0
3327 -3328 1153 0
-1153 -3327 0
3329 -3328 0
-1154 3329 0
3328 -3329 1154 0
-1154 -3328 0
3330 -3329 0
-1155 3330 0
3329 -3330 1155 0
-1155 -3329 0
3331 -3330 0
-1156 3331 0
3330 -3331 1156 0
-1156 -3330 0
3332 -3331 0
-1157 3332 0
3331 -3332 1157 0
-1157 -3331 0
3333 -3332 0
3333 -1158 0
3332 -3333 1158 0
-1158 -3332 0
3334 -3333 0
-1159 3334 0
3333 -3334 1159 0
-1159 -3333 0
3335 -3334 0
-1160 3335 0
3334 -3335 1160 0
-1160 -3334 0
3336 -3335 0
-1161 3336 0
3335 -3336 1161 0
-1161 -3335 0
3337 -3336 0
-1162 3337 0
3336 -3337 1162 0
-1162 -3336 0
3338 -3337 0
3338 -1163 0
3337 -3338 1163 0
-1163 -3337 0
3339 -3338 0
3339 -1164 0
3338 -3339 1164 0
-1164 -3338 0
3340 -3339 0
-1165 3340 0
3339 -3340 1165 0
-1165 -3339 0
3341 -3340 0
3341 -1166 0
3340 -3341 1166 0
-1166 -3340 0
3342 -3341 0
-1167 3342 0
3341 -3342 1167 0
-1167 -3341 0
3343 -3342 0
3343 -1168 0
3342 -3343 1168 0
-1168 -3342 0
3344 -3343 0
-1169 3344 0
3343 1169 -3344 0
-1169 -3343 0
3345 -3344 0
-1170 3345 0
3344 -3345 1170 0
-1170 -3344 0
3346 -3345 0
-1171 3346 0
3345 -3346 1171 0
-1171 -3345 0
3347 -3346 0
-1172 3347 0
3346 -3347 1172 0
-1172 -3346 0
3348 -3347 0
-1173 3348 0
3347 -3348 1173 0
-1173 -3347 0
3349 -3348 0
-1174 3349 0
3348 -3349 1174 0
-1174 -3348 0
3350 -3349 0
3350 -1175 0
3349 -3350 1175 0
-1175 -3349 0
3351 -3350 0
-1176 3351 0
3350 -3351 1176 0
-1176 -3350 0
3352 -3351 0
-1177 3352 0
3351 -3352 1177 0
-1177 -3351 0
3353 -3352 0
-1178 3353 0
3352 -3353 1178 0
-1178 -3352 0
3354 -3353 0
-1179 3354 0
3353 -3354 1179 0
-1179 -3353 0
3355 -3354 0
-1180 3355 0
3354 -3355 1180 0
-1180 -3354 0
3356 -3355 0
-1181 3356 0
3355 -3356 1181 0
-1181 -3355 0
3357 -3356 0
3356 -3357 1182 0
-1182 -3356 0
3358 -3357 0
3357 -3358 1183 0
-1183 -3357 0
3359 -3358 0
3358 -3359 1184 0
-1184 -3358 0
3360 -3359 0
3359 -3360 1185 0
-1185 -3359 0
3361 -3360 0
-1186 3361 0
3360 -3361 1186 0
-1186 -3360 0
3362 -3361 0
3362 -1187 0
3361 -3362 1187 0
-1187 -3361 0
3363 -3362 0
3363 -1188 0
3362 -3363 1188 0
-1188 -3362 0
3364 -3363 0
3363 -3364 1189 0
-1189 -3363 0
3365 -3364 0
3364 -3365 1190 0
-1190 -3364 0
3366 -3365 0
3365 -3366 1191 0
-1191 -3365 0
3367 -3366 0
-1192 3367 0
3366 -3367 1192 0
-1192 -3366 0
3368 -3367 0
3367 -3368 1193 0
-1193 -3367 0
3368 1194 0
-1194 -3368 0
-3369 1195 0
-3370 1196 3369 0
-3371 1197 3370 0
-3372 1198 3371 0
-3373 3372 1199 0
-3374 3373 1200 0
-3375 3374 1201 0
-3376 3375 1202 0
-3377 3376 1203 0
-3378 3377 1204 0
-3379 3378 1205 0
-3380 3379 1206 0
-3381 3380 1207 0
-3382 3381 1208 0
-3383 3382 1209 0
-3384 3383 1210 0
-3385 3384 1211 0
-3386 3385 1212 0
-3387 3386 1213 0
-3388 3387 1214 0
-3389 3388 1215 0
-3390 3389 1216 0
-3391 3390 1217 0
-3392 3391 1218 0
-3393 3392 1219 0
-3394 3393 1220 0
-3395 3394 1221 0
-3396 3395 1222 0
-3397 3396 1223 0
-3398 3397 1224 0
-3399 3398 1225 0
-3400 3399 1226 0
-3401 3400 1227 0
-3402 3401 1228 0
-3403 3402 1229 0
-3404 3403 1230 0
-3405 3404 1231 0
-3406 3405 1232 0
-3407 3406 1233 0
-3408 3407 1234 0
-3409 3408 1235 0
-3410 3409 1236 0
-3411 3410 1237 0
-3412 3411 1238 0
-3413 3412 1239 0
-3414 3413 1240 0
-3415 3414 1241 0
-3416 3415 1242 0
-3417 3416 1243 0
-3418 3417 1244 0
-3419 3418 1245 0
-3420 3419 1246 0
-3421 3420 1247 0
-3422 3421 1248 0
-3423 3422 1249 0
-3424 3423 1250 0
-3425 3424 1251 0
-3426 3425 1252 0
-3427 3426 1253 0
-3428 3427 1254 0
-3429 3428 1255 0
-3430 3429 1256 0
-3431 3430 1257 0
-3432 3431 1258 0
-3433 3432 1259 0
-3434 3433 1260 0
-3435 3434 1261 0
-3436 3435 1262 0
-3437 3436 1263 0
-3438 3437 1264 0
-3439 3438 1265 0
-3440 3439 1266 0
-3441 3440 1267 0
-3442 3441 1268 0
-3443 3442 1269 0
-3444 3443 1270 0
-3445 3444 1271 0
-3446 3445 1272 0
3446 -3447 1273 0
3447 -3448 1274 0
3448 -3449 1275 0
3449 -3450 1276 0
3450 -3451 1277 0
3451 -3452 1278 0
3452 -3453 1279 0
3453 -3454 1280 0
3454 -3455 1281 0
3455 -3456 1282 0
3456 -3457 1283 0
3457 1284 -3458 0
3458 -3459 1285 0
3459 -3460 1286 0
3460 -3461 1287 0
3461 -3462 1288 0
3462 -3463 1289 0
3463 -3464 1290 0
3464 -3465 1291 0
3465 -3466 1292 0
3466 -3467 1293 0
3467 -3468 1294 0
3468 -3469 1295 0
3469 -3470 1296 0
3470 -3471 1297 0
3471 -3472 1298 0
3472 -3473 1299 0
3473 -3474 1300 0
3474 -3475 1301 0
3475 -3476 1302 0
3476 -3477 1303 0
3477 -3478 1304 0
3478 -3479 1305 0
3479 -3480 1306 0
3480 -3481 1307 0
3481 -3482 1308 0
3482 -3483 1309 0
3483 -3484 1310 0
3484 -3485 1311 0
3485 -3486 1312 0
3486 -3487 1313 0
3487 -3488 1314 0
3488 -3489 1315 0
3489 -3490 1316 0
3490 -3491 1317 0
3491 -3492 1318 0
3492 -3493 1319 0
3493 -3494 1320 0
3494 -3495 1321 0
3495 -3496 1322 0
3496 -3497 1323 0
3497 -3498 1324 0
3498 -3499 1325 0
3499 -3500 1326 0
3500 -3501 1327 0
3501 -3502 1328 0
3502 -3503 1329 0
3503 -3504 1330 0
3504 -3505 1331 0
3505 -3506 1332 0
3506 -3507 1333 0
3507 -3508 1334 0
3508 -3509 1335 0
3509 -3510 1336 0
3510 -3511 1337 0
3511 -3512 1338 0
3512 -3513 1339 0
3513 -3514 1340 0
3514 -3515 1341 0
3515 -3516 1342 0
-3516 3517 0
3516 -3517 1343 0
-1343 -3516 0
3517 1344 0
-3517 -1344 0
-1345 3518 0
-3518 1345 0
-3518 3519 0
-1346 3519 0
-3519 1346 3518 0
-3519 3520 0
3520 -1347 0
-3520 1347 3519 0
3521 -3520 0
-1348 3521 0
-3521 1348 3520 0
-1348 -3520 0
3522 -3521 0
-1349 3522 0
-3522 1349 3521 0
-1349 -3521 0
3523 -3522 0
3523 -1350 0
-3523 3522 1350 0
-3522 -1350 0
3524 -3523 0
-1351 3524 0
-3524 3523 1351 0
-1351 -3523 0
3525 -3524 0
-1352 3525 0
-3525 3524 1352 0
-1352 -3524 0
3526 -3525 0
-1353 3526 0
-3526 3525 1353 0
-1353 -3525 0
3527 -3526 0
-1354 3527 0
-3527 1354 3526 0
-1354 -3526 0
3528 -3527 0
-3528 3527 1355 0
-1355 -3527 0
3529 -3528 0
-3529 3528 1356 0
-1356 -3528 0
3530 -3529 0
-3530 3529 1357 0
-1357 -3529 0
3531 -3530 0
-3531 3530 1358 0
-1358 -3530 0
3532 -3531 0
-1359 3532 0
-3532 3531 1359 0
-1359 -3531 0
3533 -3532 0
-1360 3533 0
-3533 3532 1360 0
-1360 -3532 0
3534 -3533 0
-1361 3534 0
-3534 3533 1361 0
-1361 -3533 0
3535 -3534 0
-1362 3535 0
-3535 3534 1362 0
-1362 -3534 0
3536 -3535 0
-1363 3536 0
-3536 3535 1363 0
-1363 -3535 0
3537 -3536 0
-1364 3537 0
-3537 3536 1364 0
-1364 -3536 0
3538 -3537 0
-1365 3538 0
-3538 3537 1365 0
-1365 -3537 0
3539 -3538 0
-1366 3539 0
-3539 3538 1366 0
-1366 -3538 0
3540 -3539 0
-1367 3540 0
-3540 3539 1367 0
-3539 -1367 0
3541 -3540 0
-1368 3541 0
3540 -3541 1368 0
-1368 -3540 0
3542 -3541 0
3541 -3542 1369 0
-1369 -3541 0
3543 -3542 0
3543 -1370 0
3542 -3543 1370 0
-3542 -1370 0
3544 -3543 0
3543 -3544 1371 0
-1371 -3543 0
3545 -3544 0
3544 -3545 1372 0
-1372 -3544 0
3546 -3545 0
-1373 3546 0
3545 -3546 1373 0
-1373 -3545 0
3547 -3546 0
3546 1374 -3547 0
-1374 -3546 0
3548 -3547 0
-1375 3548 0
3547 -3548 1375 0
-1375 -3547 0
-3548 3549 0
-1376 3549 0
3548 -3549 1376 0
-1376 -3548 0
-3549 3550 0
-1377 3550 0
3549 -3550 1377 0
-1377 -3549 0
-3550 3551 0
-1378 3551 0
3550 -3551 1378 0
-1378 -3550 0
-3551 3552 0
-1379 3552 0
3551 -3552 1379 0
-3551 -1379 0
-3552 3553 0
-1380 3553 0
3552 -3553 1380 0
-1380 -3552 0
-3553 3554 0
-1381 3554 0
3553 -3554 1381 0
-1381 -3553 0
-3554 3555 0
-1382 3555 0
3554 -3555 1382 0
-1382 -3554 0
-3555 3556 0
-1383 3556 0
3555 -3556 1383 0
-1383 -3555 0
-3556 3557 0
3557 -1384 0
3556 -3557 1384 0
-3556 -1384 0
3558 -3557 0
-1385 3558 0
3557 -3558 1385 0
-1385 -3557 0
3559 -3558 0
3559 -1386 0
3558 -3559 1386 0
-3558 -1386 0
3560 -3559 0
3560 -1387 0
3559 -3560 1387 0
-1387 -3559 0
3561 -3560 0
-1388 3561 0
3560 -3561 1388 0
-1388 -3560 0
3562 -3561 0
-1389 3562 0
3561 -3562 1389 0
-1389 -3561 0
3563 -3562 0
-1390 3563 0
3562 -3563 1390 0
-1390 -3562 0
3564 -3563 0
3564 -1391 0
3563 -3564 1391 0
-1391 -3563 0
3564 1392 0
-1392 -3564 0
3565 -1393 0
-3565 3566 0
-1394 3566 0
-3565 -1394 0
-3566 3567 0
-1395 3567 0
-3566 -1395 0
-3567 3568 0
-1396 3568 0
-3567 -1396 0
-3568 3569 0
-1397 3569 0
-3568 -1397 0
-3569 3570 0
-1398 3570 0
-1398 -3569 0
-3570 3571 0
-1399 3571 0
-1399 -3570 0
-3571 3572 0
-1400 3572 0
-3571 -1400 0
-3572 3573 0
-1401 3573 0
-1401 -3572 0
-3573 3574 0
-1402 3574 0
-3573 -1402 0
-3574 3575 0
-1403 3575 0
-3575 3576 0
-1404 3576 0
-3576 3577 0
-1405 3577 0
-3577 3578 0
-1406 3578 0
-3577 -1406 0
-3578 3579 0
-1407 3579 0
-3578 -1407 0
-3579 3580 0
-1408 3580 0
-3579 -1408 0
-3580 3581 0
-1409 3581 0
-3580 -1409 0
-3581 3582 0
-1410 3582 0
-3582 3583 0
-1411 3583 0
-3583 3584 0
-1412 3584 0
-3583 -1412 0
-3584 3585 0
-1413 3585 0
-1413 -3584 0
-3585 3586 0
-1414 3586 0
-3585 -1414 0
-3586 3587 0
-1415 3587 0
-3586 -1415 0
-3587 3588 0
-1416 3588 0
-3588 3589 0
-1417 3589 0
-3589 3590 0
-1418 3590 0
-3590 3591 0
-1419 3591 0
-3590 -1419 0
-3591 3592 0
-1420 3592 0
-3591 -1420 0
-3592 3593 0
-1421 3593 0
-3592 -1421 0
-3593 3594 0
-1422 3594 0
-1422 -3593 0
-3594 3595 0
-1423 3595 0
-3594 -1423 0
-3595 3596 0
-1424 3596 0
-3595 -1424 0
-3596 3597 0
-1425 3597 0
-3596 -1425 0
-3597 3598 0
-1426 3598 0
-3597 -1426 0
-3598 3599 0
-1427 3599 0
-3599 3600 0
-1428 3600 0
-3600 3601 0
-1429 3601 0
-3601 3602 0
-1430 3602 0
-1430 -3601 0
-3602 3603 0
-1431 3603 0
-3602 -1431 0
-3603 3604 0
-1432 3604 0
-3603 -1432 0
-3604 3605 0
-1433 3605 0
-1433 -3604 0
-3605 3606 0
-1434 3606 0
-3606 3607 0
-1435 3607 0
-3607 3608 0
-1436 3608 0
-3607 -1436 0
-3608 3609 0
-1437 3609 0
-3608 -1437 0
-3609 3610 0
-1438 3610 0
-3609 -1438 0
-3610 3611 0
-1439 3611 0
-3610 -1439 0
-3611 3612 0
-1440 3612 0
-3612 3613 0
-1441 3613 0
-3613 3614 0
-1442 3614 0
-3614 3615 0
-1443 3615 0
-3614 -1443 0
-3615 3616 0
-1444 3616 0
-1444 -3615 0
-3616 3617 0
-1445 3617 0
-1445 -3616 0
-3617 3618 0
-1446 3618 0
-3617 -1446 0
-3618 3619 0
-1447 3619 0
-3618 -1447 0
-3619 3620 0
-1448 3620 0
-3619 -1448 0
-3620 3621 0
-1449 3621 0
-3620 -1449 0
-3621 3622 0
3622 -1450 0
-3621 -1450 0
-3622 3623 0
-1451 3623 0
-3622 -1451 0
-3623 3624 0
-1452 3624 0
-3624 3625 0
-1453 3625 0
-3625 3626 0
-1454 3626 0
-3625 -1454 0
-3626 3627 0
-1455 3627 0
-3626 -1455 0
-3627 3628 0
-1456 3628 0
-3627 -1456 0
-3628 3629 0
-1457 3629 0
-3628 -1457 0
-3629 3630 0
-1458 3630 0
-3630 3631 0
-1459 3631 0
-3631 3632 0
-1460 3632 0
-3631 -1460 0
-3632 3633 0
-1461 3633 0
-3632 -1461 0
-3633 3634 0
-1462 3634 0
-3633 -1462 0
-3634 3635 0
-1463 3635 0
-3634 -1463 0
-3635 3636 0
-1464 3636 0
-3635 -1464 0
-3636 3637 0
-1465 3637 0
-3636 -1465 0
-3637 3638 0
-1466 3638 0
-3637 -1466 0
-3638 3639 0
-1467 3639 0
-3638 -1467 0
-3639 3640 0
-1468 3640 0
-3639 -1468 0
-3640 3641 0
-1469 3641 0
-3640 -1469 0
-3641 3642 0
3642 -1470 0
-3641 -1470 0
3643 -3642 0
-1471 3643 0
-3642 -1471 0
3644 -3643 0
-1472 3644 0
-3643 -1472 0
3645 -3644 0
-1473 3645 0
-3644 -1473 0
3646 -3645 0
-1474 3646 0
-3645 -1474 0
3647 -3646 0
-1475 3647 0
-1475 -3646 0
3648 -3647 0
-1476 3648 0
-3647 -1476 0
3649 -3648 0
-1477 3649 0
-3648 -1477 0
3650 -3649 0
-1478 3650 0
-3649 -1478 0
3651 -3650 0
-1479 3651 0
-3650 -1479 0
3652 -3651 0
-1480 3652 0
-3651 -1480 0
3653 -3652 0
-1481 3653 0
3654 -3653 0
-1482 3654 0
3655 -3654 0
-1483 3655 0
-3654 -1483 0
3656 -3655 0
-1484 3656 0
-1484 -3655 0
3657 -3656 0
-1485 3657 0
-3656 -1485 0
3658 -3657 0
-1486 3658 0
-3657 -1486 0
3659 -3658 0
-1487 3659 0
-3658 -1487 0
3660 -3659 0
-1488 3660 0
3661 -3660 0
-1489 3661 0
3662 -3661 0
-1490 3662 0
-3661 -1490 0
3663 -3662 0
-1491 3663 0
-3662 -1491 0
3664 -3663 0
-1492 3664 0
-3663 -1492 0
3665 -3664 0
-1493 3665 0
-3664 -1493 0
3666 -3665 0
-1494 3666 0
3667 -3666 0
-1495 3667 0
-3666 -1495 0
3668 -3667 0
-1496 3668 0
-3667 -1496 0
3669 -3668 0
-1497 3669 0
-1497 -3668 0
3670 -3669 0
-1498 3670 0
-3669 -1498 0
3671 -3670 0
-1499 3671 0
-3670 -1499 0
3672 -3671 0
-1500 3672 0
-3671 -1500 0
3673 -3672 0
-1501 3673 0
-3672 -1501 0
3674 -3673 0
-1502 3674 0
-3673 -1502 0
3675 -3674 0
-1503 3675 0
-3674 -1503 0
3676 -3675 0
-1504 3676 0
-3675 -1504 0
3677 -3676 0
-1505 3677 0
-3676 -1505 0
3678 -3677 0
-1506 3678 0
-3677 -1506 0
3679 -3678 0
-1507 3679 0
-3678 -1507 0
3680 -3679 0
-1508 3680 0
-1508 -3679 0
3681 -3680 0
-1509 3681 0
-3680 -1509 0
3682 -3681 0
-1510 3682 0
-3681 -1510 0
3683 -3682 0
-1511 3683 0
-3682 -1511 0
3684 -3683 0
3684 -1512 0
-3683 -1512 0
3685 -3684 0
-1513 3685 0
-3684 -1513 0
3686 -3685 0
-1514 3686 0
-3685 -1514 0
3687 -3686 0
-1515 3687 0
-3686 -1515 0
3688 -3687 0
-1516 3688 0
-3687 -1516 0
3689 -3688 0
-1517 3689 0
3690 -3689 0
-1518 3690 0
3691 -3690 0
-1519 3691 0
3692 -3691 0
-1520 3692 0
3693 -3692 0
-1521 3693 0
-1521 -3692 0
3694 -3693 0
-1522 3694 0
-1522 -3693 0
3695 -3694 0
-1523 3695 0
-1523 -3694 0
3696 -3695 0
-1524 3696 0
-1524 -3695 0
3697 -3696 0
-1525 3697 0
3698 -3697 0
-1526 3698 0
3699 -3698 0
-1527 3699 0
-1527 -3698 0
3700 -3699 0
-1528 3700 0
-1528 -3699 0
-3700 3701 0
-1529 3701 0
-1529 -3700 0
-3701 3702 0
-1530 3702 0
-1530 -3701 0
-3702 3703 0
-1531 3703 0
3702 -3703 1531 0
-1531 -3702 0
-3703 3704 0
-1532 3704 0
3703 -3704 1532 0
-3704 3705 0
-1533 3705 0
3704 -3705 1533 0
-1533 -3704 0
-3705 3706 0
-1534 3706 0
3705 -3706 1534 0
-1534 -3705 0
-3706 3707 0
-1535 3707 0
3706 1535 -3707 0
-1535 -3706 0
-3707 3708 0
-1536 3708 0
3707 -3708 1536 0
-1536 -3707 0
-3708 3709 0
-1537 3709 0
3708 -3709 1537 0
-1537 -3708 0
-3709 3710 0
-1538 3710 0
3709 -3710 1538 0
-3710 3711 0
-1539 3711 0
3710 -3711 1539 0
-1539 -3710 0
-3711 3712 0
-1540 3712 0
3711 -3712 1540 0
-3712 3713 0
-1541 3713 0
3712 -3713 1541 0
-1541 -3712 0
3713 1542 0
-3713 -1542 0
-1543 3714 0
-3714 1543 0
-3714 3715 0
-1544 3715 0
-3715 3714 1544 0
-3714 -1544 0
-3715 3716 0
-1545 3716 0
-3716 3715 1545 0
-3716 3717 0
-1546 3717 0
-3717 3716 1546 0
-1546 -3716 0
-3717 3718 0
-1547 3718 0
-3718 3717 1547 0
-1547 -3717 0
-3718 3719 0
-1548 3719 0
-3719 3718 1548 0
-3718 -1548 0
-3719 3720 0
-1549 3720 0
-3720 3719 1549 0
-3719 -1549 0
-3720 3721 0
-1550 3721 0
-3721 3720 1550 0
-1550 -3720 0
-3721 3722 0
-1551 3722 0
-3722 3721 1551 0
-1551 -3721 0
-3722 3723 0
-3723 1552 3722 0
-3723 3724 0
-3724 3723 1553 0
-3724 3725 0
-3725 3724 1554 0
-3725 3726 0
-3726 3725 1555 0
-3726 3727 0
-3727 3726 1556 0
-3727 3728 0
-3728 3727 1557 0
-3728 3729 0
-1558 3729 0
3728 -3729 1558 0
-1558 -3728 0
-3729 3730 0
-1559 3730 0
3729 -3730 1559 0
-3729 -1559 0
-3730 3731 0
-1560 3731 0
3730 -3731 1560 0
-1560 -3730 0
-3731 3732 0
-1561 3732 0
3731 -3732 1561 0
-1561 -3731 0
-3732 3733 0
-1562 3733 0
3732 -3733 1562 0
-3732 -1562 0
-3733 3734 0
-1563 3734 0
3733 -3734 1563 0
-1563 -3733 0
-3734 3735 0
-1564 3735 0
3734 -3735 1564 0
-1564 -3734 0
-3735 3736 0
3736 -1565 0
3735 -3736 1565 0
-3735 -1565 0
-3736 3737 0
-1566 3737 0
3736 -3737 1566 0
-1566 -3736 0
-3737 3738 0
-1567 3738 0
3737 -3738 1567 0
-1567 -3737 0
3739 -3738 0
3739 -1568 0
3738 -3739 1568 0
-3738 -1568 0
3740 -3739 0
3740 -1569 0
3739 -3740 1569 0
-1569 -3739 0
3741 -3740 0
-1570 3741 0
3740 -3741 1570 0
-1570 -3740 0
3742 -3741 0
3742 -1571 0
3741 -3742 1571 0
-1571 -3741 0
3743 -3742 0
-1572 3743 0
3742 -3743 1572 0
-1572 -3742 0
3744 -3743 0
-1573 3744 0
3743 -3744 1573 0
-1573 -3743 0
3745 -3744 0
-1574 3745 0
3744 -3745 1574 0
-1574 -3744 0
3746 -3745 0
3746 -1575 0
3745 -3746 1575 0
-1575 -3745 0
3747 -3746 0
3746 -3747 1576 0
3748 -3747 0
3747 -3748 1577 0
3749 -3748 0
3748 -3749 1578 0
3750 -3749 0
3749 -3750 1579 0
3751 -3750 0
3750 -3751 1580 0
3752 -3751 0
3751 -3752 1581 0
3753 -3752 0
-1582 3753 0
3752 -3753 1582 0
-1582 -3752 0
3754 -3753 0
-1583 3754 0
3753 -3754 1583 0
-1583 -3753 0
3755 -3754 0
-1584 3755 0
3754 -3755 1584 0
-1584 -3754 0
3756 -3755 0
3756 -1585 0
3755 -3756 1585 0
-1585 -3755 0
3757 -3756 0
3757 -1586 0
3756 -3757 1586 0
-1586 -3756 0
3758 -3757 0
-1587 3758 0
3757 -3758 1587 0
-1587 -3757 0
3759 -3758 0
-1588 3759 0
3758 -3759 1588 0
-1588 -3758 0
3760 -3759 0
3759 -3760 1589 0
-1589 -3759 0
3760 1590 0
-1590 -3760 0
-1591 3761 0
-3761 1591 0
-3761 3762 0
-1592 3762 0
-3762 3761 1592 0
-1592 -3761 0
-3762 3763 0
-1593 3763 0
-3763 3762 1593 0
-3763 3764 0
-1594 3764 0
-3764 3763 1594 0
-3764 3765 0
-1595 3765 0
-3765 3764 1595 0
-3765 3766 0
-1596 3766 0
-3766 3765 1596 0
-3766 3767 0
-1597 3767 0
-3767 3766 1597 0
-3767 3768 0
-1598 3768 0
-3768 3767 1598 0
-3768 3769 0
-1599 3769 0
-3769 3768 1599 0
-1599 -3768 0
-3769 3770 0
-1600 3770 0
-3770 3769 1600 0
-1600 -3769 0
-3770 3771 0
-1601 3771 0
-3771 3770 1601 0
-1601 -3770 0
-3771 3772 0
-1602 3772 0
-3772 3771 1602 0
-1602 -3771 0
-3772 3773 0
-1603 3773 0
-3773 3772 1603 0
-3773 3774 0
-1604 3774 0
-3774 3773 1604 0
-3774 3775 0
-1605 3775 0
-3775 3774 1605 0
-3775 3776 0
-1606 3776 0
-3776 3775 1606 0
-3776 3777 0
-1607 3777 0
-3777 3776 1607 0
-1607 -3776 0
-3777 3778 0
-1608 3778 0
-3778 3777 1608 0
-1608 -3777 0
-3778 3779 0
-1609 3779 0
-3779 3778 1609 0
-3779 3780 0
-1610 3780 0
-3780 3779 1610 0
-3780 3781 0
-1611 3781 0
-3781 3780 1611 0
-1611 -3780 0
-3781 3782 0
-1612 3782 0
-3782 3781 1612 0
-1612 -3781 0
-3782 3783 0
-1613 3783 0
-3783 3782 1613 0
-1613 -3782 0
-3783 3784 0
-1614 3784 0
-3784 3783 1614 0
-1614 -3783 0
-3784 3785 0
-1615 3785 0
-3785 3784 1615 0
-3785 3786 0
-1616 3786 0
-3786 3785 1616 0
-3786 3787 0
-1617 3787 0
-3787 3786 1617 0
-1617 -3786 0
-3787 3788 0
-1618 3788 0
-3788 3787 1618 0
-1618 -3787 0
-3788 3789 0
-1619 3789 0
-3789 3788 1619 0
-1619 -3788 0
-3789 3790 0
-1620 3790 0
-3790 3789 1620 0
-1620 -3789 0
-3790 3791 0
-1621 3791 0
-3791 1621 3790 0
-1621 -3790 0
-3791 3792 0
-1622 3792 0
-3792 3791 1622 0
-1622 -3791 0
-3792 3793 0
-1623 3793 0
-3793 3792 1623 0
-1623 -3792 0
-3793 3794 0
-1624 3794 0
-3794 3793 1624 0
-1624 -3793 0
-3794 3795 0
-1625 3795 0
-3795 3794 1625 0
-1625 -3794 0
-3795 3796 0
-1626 3796 0
-3796 3795 1626 0
-1626 -3795 0
-3796 3797 0
-1627 3797 0
-3797 3796 1627 0
-1627 -3796 0
-3797 3798 0
-1628 3798 0
-3798 3797 1628 0
-1628 -3797 0
-3798 3799 0
-1629 3799 0
-3799 3798 1629 0
-1629 -3798 0
-3799 3800 0
-1630 3800 0
-3800 3799 1630 0
-1630 -3799 0
-3800 3801 0
-1631 3801 0
-3801 3800 1631 0
-1631 -3800 0
-3801 3802 0
-1632 3802 0
-3802 3801 1632 0
-1632 -3801 0
-3802 3803 0
-1633 3803 0
-3803 3802 1633 0
-1633 -3802 0
-3803 3804 0
-1634 3804 0
-3804 3803 1634 0
-1634 -3803 0
-3804 3805 0
-1635 3805 0
-3805 3804 1635 0
-1635 -3804 0
-3805 3806 0
-1636 3806 0
-3806 3805 1636 0
-1636 -3805 0
-3806 3807 0
-1637 3807 0
-3807 3806 1637 0
-1637 -3806 0
-3807 3808 0
-1638 3808 0
-3808 3807 1638 0
-1638 -3807 0
-3808 3809 0
-1639 3809 0
-3809 3808 1639 0
-1639 -3808 0
-3809 3810 0
-1640 3810 0
-3810 3809 1640 0
-1640 -3809 0
-3810 3811 0
-1641 3811 0
-3811 3810 1641 0
-1641 -3810 0
-3811 3812 0
-1642 3812 0
-3812 3811 1642 0
-1642 -3811 0
-3812 3813 0
-1643 3813 0
-3813 3812 1643 0
-1643 -3812 0
-3813 3814 0
-1644 3814 0
-3814 3813 1644 0
-1644 -3813 0
-3814 3815 0
-1645 3815 0
-3815 3814 1645 0
-1645 -3814 0
-3815 3816 0
-1646 3816 0
-3816 3815 1646 0
-1646 -3815 0
-3816 3817 0
-1647 3817 0
-3817 3816 1647 0
-1647 -3816 0
-3817 3818 0
-1648 3818 0
-3818 3817 1648 0
-1648 -3817 0
-3818 3819 0
-1649 3819 0
-3819 3818 1649 0
-1649 -3818 0
-3819 3820 0
-1650 3820 0
-3820 3819 1650 0
-1650 -3819 0
-3820 3821 0
-1651 3821 0
-3821 3820 1651 0
-1651 -3820 0
-3821 3822 0
-1652 3822 0
-3822 3821 1652 0
-1652 -3821 0
-3822 3823 0
-1653 3823 0
-3823 3822 1653 0
-1653 -3822 0
-3823 3824 0
-1654 3824 0
-3824 3823 1654 0
-1654 -3823 0
-3824 3825 0
-1655 3825 0
-3825 3824 1655 0
-1655 -3824 0
-3825 3826 0
-1656 3826 0
-3826 3825 1656 0
-3825 -1656 0
-3826 3827 0
-1657 3827 0
-3827 3826 1657 0
-1657 -3826 0
-3827 3828 0
-1658 3828 0
-3828 3827 1658 0
-1658 -3827 0
-3828 3829 0
-1659 3829 0
-3829 3828 1659 0
-1659 -3828 0
-3829 3830 0
3830 -1660 0
-3830 3829 1660 0
-3829 -1660 0
-3830 3831 0
-1661 3831 0
-3831 3830 1661 0
-3830 -1661 0
-3831 3832 0
-1662 3832 0
-3832 3831 1662 0
-1662 -3831 0
-3832 3833 0
-1663 3833 0
-3833 3832 1663 0
-1663 -3832 0
-3833 3834 0
-1664 3834 0
-3834 3833 1664 0
-1664 -3833 0
-3834 3835 0
-1665 3835 0
-3835 3834 1665 0
-1665 -3834 0
-3835 3836 0
-1666 3836 0
-3836 3835 1666 0
-1666 -3835 0
-3836 3837 0
-1667 3837 0
-3837 3836 1667 0
-1667 -3836 0
-3837 3838 0
-3838 3837 1668 0
-1668 -3837 0
-3838 3839 0
-1669 3839 0
-3839 3838 1669 0
-1669 -3838 0
-3839 3840 0
-1670 3840 0
-3840 3839 1670 0
-1670 -3839 0
-3840 3841 0
-1671 3841 0
-3841 3840 1671 0
-1671 -3840 0
-3841 3842 0
3842 -1672 0
-3842 3841 1672 0
-1672 -3841 0
-3842 3843 0
-1673 3843 0
-3843 3842 1673 0
-1673 -3842 0
-3843 3844 0
-1674 3844 0
-3844 3843 1674 0
-1674 -3843 0
-3844 3845 0
-1675 3845 0
-3845 3844 1675 0
-1675 -3844 0
-3845 3846 0
-1676 3846 0
-3846 3845 1676 0
-1676 -3845 0
-3846 3847 0
-1677 3847 0
-3847 3846 1677 0
-1677 -3846 0
-3847 3848 0
-1678 3848 0
-3848 3847 1678 0
-1678 -3847 0
-3848 3849 0
-1679 3849 0
-3849 3848 1679 0
-1679 -3848 0
-3849 3850 0
3850 -1680 0
3849 -3850 1680 0
-1680 -3849 0
-3850 3851 0
-1681 3851 0
3850 -3851 1681 0
-1681 -3850 0
-3851 3852 0
-1682 3852 0
3851 -3852 1682 0
-1682 -3851 0
-3852 3853 0
-1683 3853 0
3852 -3853 1683 0
-1683 -3852 0
-3853 3854 0
-1684 3854 0
3853 -3854 1684 0
-1684 -3853 0
-3854 3855 0
-1685 3855 0
3854 -3855 1685 0
-1685 -3854 0
-3855 3856 0
-1686 3856 0
3855 -3856 1686 0
-1686 -3855 0
-3856 3857 0
-1687 3857 0
3856 -3857 1687 0
-1687 -3856 0
-3857 3858 0
3858 -1688 0
3857 -3858 1688 0
-3857 -1688 0
-3858 3859 0
-1689 3859 0
3858 -3859 1689 0
-1689 -3858 0
-3859 3860 0
-1690 3860 0
3859 -3860 1690 0
-1690 -3859 0
-3860 3861 0
-1691 3861 0
3860 -3861 1691 0
-1691 -3860 0
-3861 3862 0
-1692 3862 0
3861 -3862 1692 0
-1692 -3861 0
-3862 3863 0
-1693 3863 0
3862 -3863 1693 0
-1693 -3862 0
-3863 3864 0
-1694 3864 0
3863 -3864 1694 0
-1694 -3863 0
-3864 3865 0
-1695 3865 0
3864 -3865 1695 0
-1695 -3864 0
-3865 3866 0
-1696 3866 0
3865 -3866 1696 0
-1696 -3865 0
3867 -3866 0
3867 -1697 0
3866 -3867 1697 0
-3866 -1697 0
3868 -3867 0
-1698 3868 0
3867 -3868 1698 0
-1698 -3867 0
3869 -3868 0
-1699 3869 0
3868 -3869 1699 0
-1699 -3868 0
3870 -3869 0
-1700 3870 0
3869 -3870 1700 0
-1700 -3869 0
3871 -3870 0
3870 -3871 1701 0
-1701 -3870 0
3872 -3871 0
-1702 3872 0
3871 -3872 1702 0
-1702 -3871 0
3873 -3872 0
-1703 3873 0
3872 -3873 1703 0
-1703 -3872 0
3874 -3873 0
-1704 3874 0
3873 -3874 1704 0
-1704 -3873 0
3875 -3874 0
3875 -1705 0
3874 -3875 1705 0
-1705 -3874 0
3876 -3875 0
-1706 3876 0
3875 -3876 1706 0
-1706 -3875 0
3877 -3876 0
-1707 3877 0
3876 -3877 1707 0
-1707 -3876 0
3878 -3877 0
-1708 3878 0
3877 -3878 1708 0
-1708 -3877 0
3879 -3878 0
-1709 3879 0
3878 -3879 1709 0
-1709 -3878 0
3880 -3879 0
3880 -1710 0
3879 -3880 1710 0
-1710 -3879 0
3881 -3880 0
-1711 3881 0
3880 -3881 1711 0
-1711 -3880 0
3882 -3881 0
3882 -1712 0
3881 -3882 1712 0
-1712 -3881 0
3883 -3882 0
-1713 3883 0
3882 -3883 1713 0
-1713 -3882 0
3884 -3883 0
-1714 3884 0
3883 -3884 1714 0
-1714 -3883 0
3885 -3884 0
-1715 3885 0
3884 1715 -3885 0
-1715 -3884 0
3886 -3885 0
-1716 3886 0
3885 -3886 1716 0
-1716 -3885 0
3887 -3886 0
3886 -3887 1717 0
-1717 -3886 0
3888 -3887 0
3887 -3888 1718 0
-1718 -3887 0
3889 -3888 0
3888 -3889 1719 0
-1719 -3888 0
3890 -3889 0
3889 -3890 1720 0
-1720 -3889 0
3891 -3890 0
3890 -3891 1721 0
-1721 -3890 0
3892 -3891 0
3891 -3892 1722 0
-1722 -3891 0
3893 -3892 0
3892 -3893 1723 0
-1723 -3892 0
3894 -3893 0
3893 -3894 1724 0
-1724 -3893 0
3895 -3894 0
3894 -3895 1725 0
-1725 -3894 0
3896 -3895 0
3895 -3896 1726 0
-1726 -3895 0
3897 -3896 0
3896 -3897 1727 0
-1727 -3896 0
3898 -3897 0
3897 -3898 1728 0
-1728 -3897 0
3899 -3898 0
3898 -3899 1729 0
-1729 -3898 0
3900 -3899 0
3899 -3900 1730 0
-1730 -3899 0
3901 -3900 0
3900 -3901 1731 0
-1731 -3900 0
3902 -3901 0
3901 -3902 1732 0
-1732 -3901 0
3903 -3902 0
3902 -3903 1733 0
-1733 -3902 0
3904 -3903 0
3903 -3904 1734 0
-1734 -3903 0
3905 -3904 0
3904 -3905 1735 0
-1735 -3904 0
3906 -3905 0
3905 -3906 1736 0
-1736 -3905 0
3907 -3906 0
3906 -3907 1737 0
-1737 -3906 0
3908 -3907 0
3907 -3908 1738 0
-1738 -3907 0
3909 -3908 0
3908 -3909 1739 0
-1739 -3908 0
3909 1740 0
-1740 -3909 0
-1741 3910 0
-3910 1741 0
-3910 3911 0
-1742 3911 0
-3911 1742 3910 0
-1742 -3910 0
-3911 3912 0
-1743 3912 0
-3912 3911 1743 0
-1743 -3911 0
-3912 3913 0
-1744 3913 0
-3913 3912 1744 0
-3912 -1744 0
-3913 3914 0
-1745 3914 0
-3914 3913 1745 0
-1745 -3913 0
-3914 3915 0
-1746 3915 0
-3915 3914 1746 0
-3914 -1746 0
-3915 3916 0
-1747 3916 0
-3916 3915 1747 0
-1747 -3915 0
-3916 3917 0
-1748 3917 0
-3917 3916 1748 0
-3916 -1748 0
-3917 3918 0
-1749 3918 0
-3918 3917 1749 0
-1749 -3917 0
-3918 3919 0
3919 -1750 0
-3919 1750 3918 0
-3918 -1750 0
3920 -3919 0
3919 -3920 1751 0
3921 -3920 0
3920 -3921 1752 0
3922 -3921 0
3921 -3922 1753 0
3923 -3922 0
3922 -3923 1754 0
3924 -3923 0
3923 -3924 1755 0
3925 -3924 0
-1756 3925 0
3924 -3925 1756 0
-1756 -3924 0
-3925 3926 0
-1757 3926 0
3925 -3926 1757 0
-1757 -3925 0
-3926 3927 0
-1758 3927 0
3926 -3927 1758 0
-1758 -3926 0
-3927 3928 0
-1759 3928 0
3927 -3928 1759 0
-1759 -3927 0
-3928 3929 0
3929 -1760 0
3928 -3929 1760 0
-1760 -3928 0
-3929 3930 0
-1761 3930 0
3929 -3930 1761 0
-1761 -3929 0
-3930 3931 0
-1762 3931 0
3930 -3931 1762 0
-1762 -3930 0
-3931 3932 0
-1763 3932 0
3931 -3932 1763 0
-1763 -3931 0
-3932 3933 0
-1764 3933 0
3932 -3933 1764 0
-1764 -3932 0
-3933 3934 0
-1765 3934 0
3933 -3934 1765 0
-3934 3935 0
3934 -3935 1766 0
-3935 3936 0
-1767 3936 0
3935 -3936 1767 0
-3936 3937 0
-1768 3937 0
3936 1768 -3937 0
-3937 3938 0
3937 1769 -3938 0
-3938 3939 0
-1770 3939 0
3938 1770 -3939 0
-3939 3940 0
-1771 3940 0
3939 -3940 1771 0
-1771 -3939 0
-3940 3941 0
3941 -1772 0
3940 -3941 1772 0
-1772 -3940 0
-3941 3942 0
-1773 3942 0
3941 -3942 1773 0
-1773 -3941 0
-3942 3943 0
-1774 3943 0
3942 -3943 1774 0
-1774 -3942 0
-3943 3944 0
-1775 3944 0
3943 -3944 1775 0
-1775 -3943 0
-3944 3945 0
-1776 3945 0
3944 -3945 1776 0
-1776 -3944 0
-3945 3946 0
3946 -1777 0
3945 -3946 1777 0
-1777 -3945 0
-3946 3947 0
-1778 3947 0
3946 -3947 1778 0
-1778 -3946 0
-3947 3948 0
-1779 3948 0
3947 -3948 1779 0
-1779 -3947 0
-3948 3949 0
-1780 3949 0
3948 -3949 1780 0
-1780 -3948 0
-3949 3950 0
-1781 3950 0
3949 -3950 1781 0
-1781 -3949 0
-3950 3951 0
-1782 3951 0
3950 -3951 1782 0
-1782 -3950 0
3952 -3951 0
-1783 3952 0
3951 -3952 1783 0
-3951 -1783 0
3953 -3952 0
-1784 3953 0
3952 -3953 1784 0
-1784 -3952 0
3954 -3953 0
-1785 3954 0
3953 -3954 1785 0
-1785 -3953 0
3955 -3954 0
-1786 3955 0
3954 -3955 1786 0
-1786 -3954 0
3956 -3955 0
3956 -1787 0
3955 -3956 1787 0
-1787 -3955 0
3956 1788 0
-1788 -3956 0
-1789 3957 0
-3957 3958 0
-1790 3958 0
-3958 3959 0
-1791 3959 0
-3959 3960 0
-1792 3960 0
-3960 3961 0
-1793 3961 0
-3961 3962 0
-1794 3962 0
-3962 3963 0
-1795 3963 0
-3963 3964 0
-1796 3964 0
-3964 3965 0
-1797 3965 0
-3965 3966 0
-1798 3966 0
-3966 3967 0
-1799 3967 0
-3967 3968 0
-1800 3968 0
-3968 3969 0
-1801 3969 0
-3969 3970 0
-1802 3970 0
-3970 3971 0
-1803 3971 0
-3971 3972 0
-1804 3972 0
-3972 3973 0
-1805 3973 0
-3973 3974 0
-1806 3974 0
-3974 3975 0
-1807 3975 0
-3975 3976 0
-1808 3976 0
-3976 3977 0
-1809 3977 0
-3977 3978 0
-1810 3978 0
-3978 3979 0
-1811 3979 0
-3979 3980 0
-1812 3980 0
-3980 3981 0
-1813 3981 0
-3980 -1813 0
-3981 3982 0
-1814 3982 0
-1814 -3981 0
-3982 3983 0
-1815 3983 0
-1815 -3982 0
-3983 3984 0
-1816 3984 0
-1816 -3983 0
-3984 3985 0
-1817 3985 0
-1817 -3984 0
-3985 3986 0
-1818 3986 0
-3985 -1818 0
-3986 3987 0
-1819 3987 0
-3987 3988 0
-1820 3988 0
-3988 3989 0
-1821 3989 0
-3989 3990 0
-1822 3990 0
-3990 3991 0
-1823 3991 0
-3991 3992 0
-1824 3992 0
-3992 3993 0
-1825 3993 0
-3993 3994 0
-1826 3994 0
-3994 3995 0
-1827 3995 0
-3995 3996 0
-1828 3996 0
-3996 3997 0
-1829 3997 0
-3997 3998 0
-1830 3998 0
-3998 3999 0
-1831 3999 0
-3999 4000 0
-1832 4000 0
-4000 4001 0
-1833 4001 0
-4001 4002 0
-1834 4002 0
-4002 4003 0
-1835 4003 0
-4003 4004 0
-1836 4004 0
-4004 4005 0
-1837 4005 0
-1837 -4004 0
-4005 4006 0
-1838 4006 0
-1838 -4005 0
-4006 4007 0
-1839 4007 0
-1839 -4006 0
-4007 4008 0
-1840 4008 0
-1840 -4007 0
-4008 4009 0
-1841 4009 0
-1841 -4008 0
-4009 4010 0
-1842 4010 0
-1842 -4009 0
-4010 4011 0
-1843 4011 0
-4010 -1843 0
-4011 4012 0
-1844 4012 0
-4011 -1844 0
-4012 4013 0
-1845 4013 0
-1845 -4012 0
-4013 4014 0
-1846 4014 0
-1846 -4013 0
-4014 4015 0
-1847 4015 0
-1847 -4014 0
-4015 4016 0
-1848 4016 0
-1848 -4015 0
-4016 4017 0
-1849 4017 0
-1849 -4016 0
-4017 4018 0
-1850 4018 0
-1850 -4017 0
-4018 4019 0
-1851 4019 0
-1851 -4018 0
-4019 4020 0
-1852 4020 0
-1852 -4019 0
-4020 4021 0
-1853 4021 0
-1853 -4020 0
-4021 4022 0
-1854 4022 0
-1854 -4021 0
-4022 4023 0
-1855 4023 0
-4022 -1855 0
-4023 4024 0
-1856 4024 0
-1856 -4023 0
-4024 4025 0
-1857 4025 0
-1857 -4024 0
-4025 4026 0
-1858 4026 0
-1858 -4025 0
-4026 4027 0
-1859 4027 0
-1859 -4026 0
-4027 4028 0
-1860 4028 0
-1860 -4027 0
-4028 4029 0
-1861 4029 0
-1861 -4028 0
-4029 4030 0
-1862 4030 0
-1862 -4029 0
-4030 4031 0
-1863 4031 0
-1863 -4030 0
-4031 4032 0
-1864 4032 0
-1864 -4031 0
-4032 4033 0
-1865 4033 0
-1865 -4032 0
-4033 4034 0
-1866 4034 0
-1866 -4033 0
-4034 4035 0
-1867 4035 0
-1867 -4034 0
-4035 4036 0
-1868 4036 0
-1868 -4035 0
-4036 4037 0
-1869 4037 0
-1869 -4036 0
-4037 4038 0
-1870 4038 0
-1870 -4037 0
-4038 4039 0
-1871 4039 0
-1871 -4038 0
-4039 4040 0
-1872 4040 0
-1872 -4039 0
-4040 4041 0
-1873 4041 0
-1873 -4040 0
-4041 4042 0
-1874 4042 0
-1874 -4041 0
-4042 4043 0
-1875 4043 0
-1875 -4042 0
-4043 4044 0
-1876 4044 0
-1876 -4043 0
-4044 4045 0
-1877 4045 0
-1877 -4044 0
-4045 4046 0
-1878 4046 0
-1878 -4045 0
-4046 4047 0
4047 -1879 0
-4046 -1879 0
-4047 4048 0
4048 -1880 0
-4047 -1880 0
4049 -4048 0
4049 -1881 0
-4048 -1881 0
4050 -4049 0
-1882 -4049 0
4051 -4050 0
-1883 -4050 0
4052 -4051 0
-1884 -4051 0
4053 -4052 0
-1885 -4052 0
4054 -4053 0
-1886 -4053 0
4055 -4054 0
-1887 -4054 0
-4055 4056 0
-1888 4056 0
-1888 -4055 0
-4056 4057 0
-1889 4057 0
-4056 -1889 0
-4057 4058 0
-1890 4058 0
-1890 -4057 0
-4058 4059 0
-1891 4059 0
-1891 -4058 0
-4059 4060 0
-1892 4060 0
-1892 -4059 0
-4060 4061 0
-1893 4061 0
-1893 -4060 0
-4061 4062 0
-1894 4062 0
-1894 -4061 0
-4062 4063 0
-1895 4063 0
-1895 -4062 0
-4063 4064 0
-1896 4064 0
-1896 -4063 0
-4064 4065 0
-1897 4065 0
-1897 -4064 0
-4065 4066 0
-1898 4066 0
-1898 -4065 0
-4066 4067 0
-1899 4067 0
-1899 -4066 0
-4067 4068 0
-1900 4068 0
-1900 -4067 0
-4068 4069 0
-1901 4069 0
-1901 -4068 0
-4069 4070 0
-1902 4070 0
-1902 -4069 0
-4070 4071 0
-1903 4071 0
-1903 -4070 0
-4071 4072 0
-1904 4072 0
-1904 -4071 0
-4072 4073 0
-1905 4073 0
-1905 -4072 0
-4073 4074 0
-1906 -4073 0
-4074 4075 0
-1907 -4074 0
-4075 4076 0
-1908 -4075 0
-4076 4077 0
-1909 4077 0
-1909 -4076 0
-4077 4078 0
-1910 4078 0
-1910 -4077 0
-4078 4079 0
4079 -1911 0
-1911 -4078 0
-4079 4080 0
-1912 4080 0
-1912 -4079 0
-4080 4081 0
4081 -1913 0
-1913 -4080 0
4082 -4081 0
4082 -1914 0
-4081 -1914 0
4083 -4082 0
-1915 -4082 0
4084 -4083 0
-1916 -4083 0
4085 -4084 0
-1917 -4084 0
4086 -4085 0
-1918 -4085 0
4087 -4086 0
-1919 -4086 0
4088 -4087 0
-1920 -4087 0
4089 -4088 0
-1921 -4088 0
4090 -4089 0
-1922 -4089 0
4091 -4090 0
-1923 -4090 0
4092 -4091 0
-1924 -4091 0
4093 -4092 0
-1925 -4092 0
4094 -4093 0
-1926 -4093 0
4095 -4094 0
-1927 -4094 0
4096 -4095 0
-1928 -4095 0
4097 -4096 0
-1929 -4096 0
4098 -4097 0
-1930 -4097 0
4099 -4098 0
-1931 -4098 0
4100 -4099 0
-1932 -4099 0
4101 -4100 0
-1933 -4100 0
4102 -4101 0
-1934 -4101 0
4103 -4102 0
-1935 -4102 0
4104 -4103 0
-1936 -4103 0
4105 -4104 0
-1937 -4104 0
-1938 -4105 0
-1939 4106 0
-4106 1939 0
-4106 4107 0
4107 -1940 0
-4107 4106 1940 0
-4106 -1940 0
-4107 4108 0
-1941 4108 0
-4108 4107 1941 0
-1941 -4107 0
-4108 4109 0
-1942 4109 0
-4109 1942 4108 0
-1942 -4108 0
-4109 4110 0
-1943 4110 0
-4110 4109 1943 0
-1943 -4109 0
-4110 4111 0
-1944 4111 0
-4111 4110 1944 0
-1944 -4110 0
-4111 4112 0
-1945 4112 0
-4112 4111 1945 0
-1945 -4111 0
-4112 4113 0
-1946 4113 0
-4113 4112 1946 0
-1946 -4112 0
-4113 4114 0
-1947 4114 0
-4114 4113 1947 0
-1947 -4113 0
-4114 4115 0
-1948 4115 0
-4115 4114 1948 0
-1948 -4114 0
-4115 4116 0
-1949 4116 0
-4116 4115 1949 0
-1949 -4115 0
-4116 4117 0
4117 -1950 0
-4117 4116 1950 0
-1950 -4116 0
-4117 4118 0
-1951 4118 0
-4118 4117 1951 0
-1951 -4117 0
-4118 4119 0
-1952 4119 0
-4119 4118 1952 0
-1952 -4118 0
-4119 4120 0
-1953 4120 0
-4120 4119 1953 0
-1953 -4119 0
-4120 4121 0
-1954 4121 0
-4121 4120 1954 0
-1954 -4120 0
-4121 4122 0
-1955 4122 0
-4122 4121 1955 0
-1955 -4121 0
-4122 4123 0
-1956 4123 0
-4123 4122 1956 0
-1956 -4122 0
-4123 4124 0
-1957 4124 0
-4124 4123 1957 0
-1957 -4123 0
-4124 4125 0
-1958 4125 0
-4125 4124 1958 0
-1958 -4124 0
-4125 4126 0
-1959 4126 0
-4126 4125 1959 0
-1959 -4125 0
-4126 4127 0
-1960 4127 0
-4127 4126 1960 0
-1960 -4126 0
-4127 4128 0
-1961 4128 0
-4128 4127 1961 0
-1961 -4127 0
-4128 4129 0
-1962 4129 0
-4129 4128 1962 0
-1962 -4128 0
-4129 4130 0
-1963 4130 0
-4130 4129 1963 0
-1963 -4129 0
-4130 4131 0
-1964 4131 0
-4131 4130 1964 0
-1964 -4130 0
-4131 4132 0
-1965 4132 0
-4132 4131 1965 0
-1965 -4131 0
-4132 4133 0
-1966 4133 0
-4133 4132 1966 0
-1966 -4132 0
-4133 4134 0
-1967 4134 0
-4134 4133 1967 0
-1967 -4133 0
-4134 4135 0
-1968 4135 0
-4135 4134 1968 0
-1968 -4134 0
-4135 4136 0
-1969 4136 0
-1969 -4135 0
-4136 4137 0
-1970 4137 0
-1970 -4136 0
-4137 4138 0
-1971 4138 0
-1971 -4137 0
-4138 4139 0
-1972 4139 0
-1972 -4138 0
-4139 4140 0
-1973 4140 0
-1973 -4139 0
-4140 4141 0
-1974 4141 0
-1974 -4140 0
-4141 4142 0
-1975 4142 0
-1975 -4141 0
-4142 4143 0
-1976 4143 0
-1976 -4142 0
-4143 4144 0
-1977 4144 0
-1977 -4143 0
-4144 4145 0
-1978 4145 0
-1978 -4144 0
-4145 4146 0
-1979 4146 0
-1979 -4145 0
-4146 4147 0
-1980 4147 0
-1980 -4146 0
-4147 4148 0
-1981 4148 0
-1981 -4147 0
-4148 4149 0
-1982 4149 0
-1982 -4148 0
-4149 4150 0
-1983 4150 0
-1983 -4149 0
-4150 4151 0
-1984 4151 0
-1984 -4150 0
-4151 4152 0
-1985 4152 0
-1985 -4151 0
-4152 4153 0
-1986 4153 0
-1986 -4152 0
-4153 4154 0
-1987 4154 0
-1987 -4153 0
-4154 4155 0
-1988 4155 0
-1988 -4154 0
-4155 4156 0
-1989 4156 0
-1989 -4155 0
-4156 4157 0
-1990 4157 0
-1990 -4156 0
-4157 4158 0
-1991 4158 0
-1991 -4157 0
-4158 4159 0
-1992 4159 0
-1992 -4158 0
-4159 4160 0
-1993 4160 0
-1993 -4159 0
-4160 4161 0
-1994 4161 0
-1994 -4160 0
-4161 4162 0
-1995 4162 0
-1995 -4161 0
-4162 4163 0
4163 -1996 0
-4162 -1996 0
-4163 4164 0
-1997 4164 0
-1997 -4163 0
-4164 4165 0
-1998 4165 0
-4164 -1998 0
-4165 4166 0
-1999 4166 0
-1999 -4165 0
-4166 4167 0
-2000 4167 0
-2000 -4166 0
-4167 4168 0
-2001 4168 0
-2001 -4167 0
-4168 4169 0
-2002 4169 0
-2002 -4168 0
-4169 4170 0
-2003 4170 0
-2003 -4169 0
-4170 4171 0
-2004 4171 0
-2004 -4170 0
-4171 4172 0
-2005 4172 0
-2005 -4171 0
-4172 4173 0
4173 -2006 0
-4172 -2006 0
-4173 4174 0
-2007 4174 0
-2007 -4173 0
-4174 4175 0
-2008 4175 0
-2008 -4174 0
-4175 4176 0
-2009 4176 0
-2009 -4175 0
-4176 4177 0
-2010 4177 0
-2010 -4176 0
-4177 4178 0
-2011 4178 0
-2011 -4177 0
-4178 4179 0
-2012 4179 0
-2012 -4178 0
-4179 4180 0
-2013 4180 0
-2013 -4179 0
-4180 4181 0
-2014 4181 0
-2014 -4180 0
-4181 4182 0
-2015 4182 0
-2015 -4181 0
-4182 4183 0
-2016 4183 0
-2016 -4182 0
-4183 4184 0
-2017 4184 0
-2017 -4183 0
-4184 4185 0
-2018 4185 0
-2018 -4184 0
-4185 4186 0
-2019 4186 0
-2019 -4185 0
-4186 4187 0
-2020 4187 0
-2020 -4186 0
-4187 4188 0
-2021 4188 0
-2021 -4187 0
-4188 4189 0
-2022 4189 0
-2022 -4188 0
-4189 4190 0
-2023 4190 0
-2023 -4189 0
-4190 4191 0
-2024 4191 0
-2024 -4190 0
-4191 4192 0
-2025 4192 0
-2025 -4191 0
-4192 4193 0
-2026 4193 0
-2026 -4192 0
-4193 4194 0
-2027 4194 0
-2027 -4193 0
-4194 4195 0
-2028 4195 0
-2028 -4194 0
-4195 4196 0
-2029 4196 0
-4195 -2029 0
-4196 4197 0
-2030 4197 0
-2030 -4196 0
-4197 4198 0
-2031 4198 0
-2031 -4197 0
-4198 4199 0
-2032 4199 0
-2032 -4198 0
-4199 4200 0
-2033 4200 0
-2033 -4199 0
-4200 4201 0
-2034 4201 0
-2034 -4200 0
-4201 4202 0
-2035 4202 0
-2035 -4201 0
-4202 4203 0
-2036 4203 0
-2036 -4202 0
-4203 4204 0
-2037 4204 0
-2037 -4203 0
-4204 4205 0
-2038 4205 0
-4204 -2038 0
-4205 4206 0
-2039 4206 0
-2039 -4205 0
-4206 4207 0
-2040 4207 0
-2040 -4206 0
-4207 4208 0
-2041 4208 0
-4207 -2041 0
-4208 4209 0
-2042 4209 0
-2042 -4208 0
4210 -4209 0
4210 -2043 0
-4209 -2043 0
4211 -4210 0
-2044 4211 0
-2044 -4210 0
4212 -4211 0
-2045 4212 0
-2045 -4211 0
4213 -4212 0
-2046 4213 0
-2046 -4212 0
4214 -4213 0
-2047 4214 0
-2047 -4213 0
4215 -4214 0
-2048 4215 0
-2048 -4214 0
4216 -4215 0
-2049 4216 0
-2049 -4215 0
4217 -4216 0
-2050 4217 0
-2050 -4216 0
4218 -4217 0
-2051 4218 0
-2051 -4217 0
4219 -4218 0
-2052 4219 0
-2052 -4218 0
4220 -4219 0
-2053 4220 0
-2053 -4219 0
4221 -4220 0
-2054 4221 0
-2054 -4220 0
4222 -4221 0
-2055 4222 0
-2055 -4221 0
4223 -4222 0
-2056 4223 0
-2056 -4222 0
4224 -4223 0
-2057 4224 0
-2057 -4223 0
4225 -4224 0
-2058 4225 0
-2058 -4224 0
4226 -4225 0
-2059 4226 0
-2059 -4225 0
4227 -4226 0
-2060 4227 0
-4226 -2060 0
4228 -4227 0
-2061 4228 0
-2061 -4227 0
4229 -4228 0
-2062 4229 0
-2062 -4228 0
4230 -4229 0
-2063 4230 0
-2063 -4229 0
4231 -4230 0
-2064 4231 0
-2064 -4230 0
4232 -4231 0
-2065 4232 0
-2065 -4231 0
4233 -4232 0
4233 -2066 0
-4232 -2066 0
4234 -4233 0
-2067 4234 0
-2067 -4233 0
4235 -4234 0
-2068 4235 0
-2068 -4234 0
4236 -4235 0
-2069 4236 0
-2069 -4235 0
4237 -4236 0
-2070 4237 0
-2070 -4236 0
4238 -4237 0
-2071 4238 0
-2071 -4237 0
4239 -4238 0
-2072 4239 0
-2072 -4238 0
4240 -4239 0
4240 -2073 0
-4239 -2073 0
4241 -4240 0
-2074 4241 0
-2074 -4240 0
4242 -4241 0
-2075 4242 0
-2075 -4241 0
4243 -4242 0
-2076 4243 0
-2076 -4242 0
4244 -4243 0
-2077 4244 0
-2077 -4243 0
4245 -4244 0
-2078 4245 0
-2078 -4244 0
4246 -4245 0
-2079 4246 0
-2079 -4245 0
4247 -4246 0
-2080 4247 0
-2080 -4246 0
4248 -4247 0
-2081 4248 0
-2081 -4247 0
4249 -4248 0
-2082 4249 0
-2082 -4248 0
4250 -4249 0
4250 -2083 0
-4249 -2083 0
4251 -4250 0
-2084 4251 0
-2084 -4250 0
4252 -4251 0
-2085 4252 0
-2085 -4251 0
4253 -4252 0
-2086 4253 0
4252 -4253 2086 0
-2086 -4252 0
4254 -4253 0
-2087 4254 0
4253 -4254 2087 0
-2087 -4253 0
4254 2088 0
-2088 -4254 0
-2089 4255 0
-4255 2089 0
-4255 4256 0
-2090 4256 0
-4256 4255 2090 0
-4255 -2090 0
-4256 4257 0
-2091 4257 0
-4257 4256 2091 0
-2091 -4256 0
-4257 4258 0
-2092 4258 0
-4258 4257 2092 0
-4257 -2092 0
-4258 4259 0
-2093 4259 0
-4259 4258 2093 0
-2093 -4258 0
-4259 4260 0
-2094 4260 0
-4260 4259 2094 0
-2094 -4259 0
-4260 4261 0
-2095 4261 0
-4261 4260 2095 0
-2095 -4260 0
4262 -4261 0
-2096 4262 0
-4262 4261 2096 0
-4261 -2096 0
-4262 4263 0
-2097 4263 0
-4263 4262 2097 0
-2097 -4262 0
-4263 4264 0
-2098 4264 0
-4264 4263 2098 0
-2098 -4263 0
-4264 4265 0
-2099 4265 0
4264 -4265 2099 0
-2099 -4264 0
-4265 4266 0
4266 -2100 0
4265 -4266 2100 0
-4265 -2100 0
-4266 4267 0
-2101 4267 0
4266 -4267 2101 0
-2101 -4266 0
-4267 4268 0
-2102 4268 0
4267 -4268 2102 0
-2102 -4267 0
-4268 4269 0
-2103 4269 0
4268 -4269 2103 0
-2103 -4268 0
-4269 4270 0
4270 -2104 0
4269 -4270 2104 0
-4269 -2104 0
-4270 4271 0
-2105 4271 0
4270 -4271 2105 0
-2105 -4270 0
-4271 4272 0
-2106 4272 0
4271 -4272 2106 0
-2106 -4271 0
-4272 4273 0
-2107 4273 0
4272 -4273 2107 0
-2107 -4272 0
-4273 4274 0
-2108 4274 0
4273 -4274 2108 0
-2108 -4273 0
-4274 4275 0
-2109 4275 0
4274 -4275 2109 0
-2109 -4274 0
-4275 4276 0
-2110 4276 0
4275 -4276 2110 0
-2110 -4275 0
-4276 4277 0
-2111 4277 0
4276 -4277 2111 0
-2111 -4276 0
-4277 4278 0
-2112 4278 0
4277 -4278 2112 0
-2112 -4277 0
-4278 4279 0
-2113 4279 0
4278 -4279 2113 0
-2113 -4278 0
-4279 4280 0
-2114 4280 0
4279 -4280 2114 0
-2114 -4279 0
-4280 4281 0
4281 -2115 0
4280 -4281 2115 0
-4280 -2115 0
-4281 4282 0
-2116 4282 0
4281 -4282 2116 0
-2116 -4281 0
-4282 4283 0
-2117 4283 0
4282 -4283 2117 0
-2117 -4282 0
-4283 4284 0
-2118 4284 0
4283 -4284 2118 0
-4283 -2118 0
-4284 4285 0
-2119 4285 0
4284 -4285 2119 0
-2119 -4284 0
-4285 4286 0
-2120 4286 0
4285 -4286 2120 0
-2120 -4285 0
-4286 4287 0
-2121 4287 0
4286 -4287 2121 0
-2121 -4286 0
-4287 4288 0
4288 -2122 0
4287 -4288 2122 0
-4287 -2122 0
-4288 4289 0
-2123 4289 0
4288 -4289 2123 0
-2123 -4288 0
-4289 4290 0
-2124 4290 0
4289 -4290 2124 0
-2124 -4289 0
-4290 4291 0
-2125 4291 0
4290 -4291 2125 0
-2125 -4290 0
-4291 4292 0
-2126 4292 0
4291 -4292 2126 0
-2126 -4291 0
-4292 4293 0
4293 -2127 0
4292 -4293 2127 0
-4292 -2127 0
-4293 4294 0
4294 -2128 0
4293 -4294 2128 0
-2128 -4293 0
-4294 4295 0
4295 -2129 0
4294 -4295 2129 0
-2129 -4294 0
-4295 4296 0
-2130 4296 0
4295 -4296 2130 0
-2130 -4295 0
-4296 4297 0
-2131 4297 0
4296 -4297 2131 0
-2131 -4296 0
4298 -4297 0
-2132 4298 0
4297 -4298 2132 0
-4297 -2132 0
4299 -4298 0
-2133 4299 0
4298 -4299 2133 0
-2133 -4298 0
4300 -4299 0
-2134 4300 0
4299 -4300 2134 0
-2134 -4299 0
4301 -4300 0
-2135 4301 0
4300 -4301 2135 0
-2135 -4300 0
4301 2136 0
-2136 -4301 0
-2137 4302 0
-4302 2137 0
-4302 4303 0
-2138 4303 0
-4303 4302 2138 0
-4302 -2138 0
-4303 4304 0
-2139 4304 0
-4304 4303 2139 0
-2139 -4303 0
-4304 4305 0
-2140 4305 0
-4305 4304 2140 0
-4304 -2140 0
-4305 4306 0
-2141 4306 0
-4306 4305 2141 0
-4305 -2141 0
-4306 4307 0
-2142 4307 0
-4307 4306 2142 0
-4306 -2142 0
-4307 4308 0
-2143 4308 0
-4308 4307 2143 0
-2143 -4307 0
-4308 4309 0
-2144 4309 0
-4309 4308 2144 0
-2144 -4308 0
-4309 4310 0
4310 -2145 0
-4310 4309 2145 0
-4309 -2145 0
-4310 4311 0
-2146 4311 0
-4311 2146 4310 0
-2146 -4310 0
-4311 4312 0
-2147 4312 0
4311 -4312 2147 0
-4311 -2147 0
-4312 4313 0
-2148 4313 0
4312 -4313 2148 0
-2148 -4312 0
-4313 4314 0
-2149 4314 0
4313 -4314 2149 0
-4313 -2149 0
-4314 4315 0
-2150 4315 0
4314 -4315 2150 0
-2150 -4314 0
-4315 4316 0
-2151 4316 0
4315 -4316 2151 0
-2151 -4315 0
-4316 4317 0
-2152 4317 0
4316 -4317 2152 0
-2152 -4316 0
-4317 4318 0
-2153 4318 0
4317 -4318 2153 0
-2153 -4317 0
-4318 4319 0
-2154 4319 0
4318 -4319 2154 0
-2154 -4318 0
-4319 4320 0
-2155 4320 0
4319 -4320 2155 0
-2155 -4319 0
-4320 4321 0
-2156 4321 0
4320 -4321 2156 0
-2156 -4320 0
-4321 4322 0
-2157 4322 0
4321 -4322 2157 0
-2157 -4321 0
4323 -4322 0
4323 -2158 0
4322 -4323 2158 0
-4322 -2158 0
4324 -4323 0
-2159 4324 0
4323 -4324 2159 0
-2159 -4323 0
4325 -4324 0
-2160 4325 0
4324 -4325 2160 0
-2160 -4324 0
4326 -4325 0
-2161 4326 0
4325 -4326 2161 0
-2161 -4325 0
4327 -4326 0
-2162 4327 0
4326 -4327 2162 0
-2162 -4326 0
4328 -4327 0
-2163 4328 0
4327 -4328 2163 0
-2163 -4327 0
4329 -4328 0
-2164 4329 0
4328 -4329 2164 0
-2164 -4328 0
4330 -4329 0
-2165 4330 0
4329 -4330 2165 0
-2165 -4329 0
4331 -4330 0
4331 -2166 0
4330 -4331 2166 0
-2166 -4330 0
4332 -4331 0
4332 -2167 0
4331 -4332 2167 0
-2167 -4331 0
4333 -4332 0
-2168 4333 0
4332 -4333 2168 0
-2168 -4332 0
4334 -4333 0
-2169 4334 0
4333 -4334 2169 0
-2169 -4333 0
4335 -4334 0
-2170 4335 0
4334 -4335 2170 0
-2170 -4334 0
4336 -4335 0
-2171 4336 0
4335 -4336 2171 0
-2171 -4335 0
4337 -4336 0
4337 -2172 0
4336 -4337 2172 0
-2172 -4336 0
4338 -4337 0
-2173 4338 0
4337 -4338 2173 0
-2173 -4337 0
4339 -4338 0
-2174 4339 0
4338 -4339 2174 0
-2174 -4338 0
4340 -4339 0
-2175 4340 0
4339 -4340 2175 0
-2175 -4339 0
4341 -4340 0
-2176 4341 0
4340 -4341 2176 0
-2176 -4340 0
-4341 4342 0
4342 -2177 0
4341 -4342 2177 0
-2177 -4341 0
4343 -4342 0
4343 -2178 0
4342 -4343 2178 0
-4342 -2178 0
4344 -4343 0
-2179 4344 0
4343 -4344 2179 0
-2179 -4343 0
-4344 4345 0
4345 -2180 0
4344 -4345 2180 0
-2180 -4344 0
-4345 4346 0
-2181 4346 0
4345 -4346 2181 0
-2181 -4345 0
-4346 4347 0
4347 -2182 0
4346 -4347 2182 0
-2182 -4346 0
4348 -4347 0
4347 -4348 2183 0
-4347 -2183 0
4348 2184 0
-2184 -4348 0
-1 4349 0
-4 4349 0
-5 4349 0
-6 4349 0
-25 4349 0
-26 4349 0
-27 4349 0
-28 4349 0
-29 4349 0
-30 4349 0
-596 4351 0
4351 -597 0
4351 -599 0
-601 4351 0
-602 4351 0
-603 4351 0
-604 4351 0
-605 4351 0
-606 4351 0
-607 4351 0
-608 4351 0
-609 4351 0
-610 4351 0
-611 4351 0
-612 4351 0
-613 4351 0
-614 4351 0
-615 4351 0
-616 4351 0
-617 4351 0
-618 4351 0
-619 4351 0
-620 4351 0
-621 4351 0
-622 4351 0
-623 4351 0
-624 4351 0
-745 4353 0
-746 4353 0
-747 4353 0
-748 4353 0
-749 4353 0
-750 4353 0
-751 4353 0
-752 4353 0
-753 4353 0
-754 4353 0
-755 4353 0
-756 4353 0
-759 4353 0
-760 4353 0
-761 4353 0
-763 4353 0
-764 4353 0
-765 4353 0
-766 4353 0
-767 4353 0
-768 4353 0
-769 4353 0
-770 4353 0
-771 4353 0
-772 4353 0
-773 4353 0
-774 4353 0
-896 4355 0
-898 4355 0
-901 4355 0
-902 4355 0
-903 4355 0
-904 4355 0
-905 4355 0
-906 4355 0
-907 4355 0
-908 4355 0
-909 4355 0
-910 4355 0
-911 4355 0
-912 4355 0
-913 4355 0
-914 4355 0
-915 4355 0
-916 4355 0
-917 4355 0
-918 4355 0
-919 4355 0
-920 4355 0
-921 4355 0
-922 4355 0
-923 4355 0
-924 4355 0
4357 -2089 0
-2090 4357 0
-2091 4357 0
-2092 4357 0
-2093 4357 0
-2094 4357 0
-2095 4357 0
-2096 4357 0
-2097 4357 0
-2098 4357 0
-4357 2095 2097 2093 2091 2096 2094 2098 2090 2092 2089 0
-4349 -4351 0
-4353 -4349 0
-4355 -4349 0
-4357 -4349 0
-4355 -4351 0
-4357 -4351 0
-4353 -4355 0
-4360 0
-625 4361 0
-626 4361 0
-627 4361 0
-629 4361 0
-630 4361 0
-631 4361 0
-632 4361 0
-635 4361 0
-636 4361 0
-638 4361 0
-639 4361 0
-640 4361 0
-641 4361 0
-642 4361 0
-643 4361 0
-644 4361 0
-645 4361 0
-646 4361 0
-647 4361 0
-648 4361 0
684 -4361 630 638 651 667 671 673 675 656 625 658 659 662 653 648 627 634 665 676 641 643 639 636 674 631 644 670 652 650 660 637 669 657 635 649 654 661 633 663 629 647 626 645 664 632 681 666 646 628 672 668 642 678 640 680 655 682 683 679 677 0
-4362 0
-4363 828 784 800 834 809 781 778 777 799 782 783 815 775 807 779 785 787 789 790 811 791 794 793 795 776 788 792 797 798 801 796 802 803 808 804 810 780 812 813 814 820 816 805 817 818 786 819 821 822 823 824 825 826 827 806 830 829 832 831 833 0
-4364 0
-4365 970 925 926 964 982 972 980 950 929 949 951 932 959 938 935 931 975 939 943 928 945 934 947 930 927 944 941 958 952 954 940 979 936 937 942 966 961 962 960 933 957 973 967 974 969 946 971 953 965 955 948 956 977 978 963 981 968 976 983 984 0
-4366 0
-4367 2104 2117 2103 2108 2107 2099 2101 2100 2113 2109 2112 2106 2116 2105 2114 2115 2102 2111 2110 0
-4368 0
4363 4361 4365 4367 4364 4362 4366 4360 4368 0
4371 -692 0
-695 4371 0
4371 -698 0
-699 4371 0
-703 4371 0
-708 4371 0
-709 4371 0
4371 -710 0
4371 -711 0
-712 4371 0
-713 4371 0
-714 4371 0
4371 -715 0
-716 4371 0
4371 -717 0
-718 4371 0
-719 4371 0
4371 -720 0
4371 -721 0
-722 4371 0
-723 4371 0
-724 4371 0
4371 -725 0
4371 -726 0
-727 4371 0
-728 4371 0
-729 4371 0
-730 4371 0
-731 4371 0
-732 4371 0
-733 4371 0
-734 4371 0
-735 4371 0
4371 -736 0
4371 -737 0
-738 4371 0
-739 4371 0
-740 4371 0
-741 4371 0
-742 4371 0
-743 4371 0
-744 4371 0
-4371 687 708 715 729 736 726 706 688 689 690 731 707 697 695 734 714 711 717 738 692 694 691 693 728 701 739 686 700 712 710 716 713 696 719 744 724 709 718 725 685 721 704 698 705 730 703 699 733 723 735 737 722 732 727 740 741 742 743 720 702 0
-841 4373 0
-845 4373 0
-847 4373 0
-853 4373 0
-878 4373 0
-884 4373 0
-889 4373 0
4375 -989 0
4375 -995 0
-997 4375 0
-1005 4375 0
-1024 4375 0
-1034 4375 0
4377 -2120 0
-2121 4377 0
4377 -2122 0
-2123 4377 0
-2124 4377 0
-2125 4377 0
4377 -2126 0
4377 -2127 0
4377 -2128 0
4377 -2129 0
-2130 4377 0
-2131 4377 0
4377 -2133 0
4377 -2134 0
4377 -2135 0
-4377 2124 2122 2127 2132 2121 2134 2118 2133 2125 2128 2129 2130 2123 2126 2120 2131 2135 2136 2119 0
-4373 -4377 -4371 0
-4377 -4375 -4371 0
-31 4379 0
-32 4379 0
-33 4379 0
-34 4379 0
-35 4379 0
-36 4379 0
-43 4379 0
-44 4379 0
-45 4379 0
-46 4379 0
-47 4379 0
-48 4379 0
-625 4381 0
-626 4381 0
-629 4381 0
-639 4381 0
-703 4381 0
4381 -710 0
-775 4383 0
-928 4385 0
4385 -934 0
-938 4385 0
4385 -940 0
4385 -989 0
4385 -995 0
-997 4385 0
-1005 4385 0
4387 -2105 0
4387 -2127 0
4387 -2128 0
-4387 2121 2099 2132 2111 2127 2135 2119 2106 2126 2110 2122 2118 2134 2105 2120 2128 2131 2123 2102 0
-4379 -4383 -4387 0
-4387 -4385 -4381 0
-1 4389 0
4391 -597 0
4391 -721 0
-722 4391 0
-723 4391 0
-724 4391 0
4391 -725 0
4391 -726 0
-727 4391 0
-728 4391 0
-729 4391 0
-730 4391 0
-731 4391 0
-732 4391 0
-733 4391 0
-734 4391 0
-735 4391 0
4391 -736 0
4391 -737 0
-738 4391 0
-739 4391 0
-740 4391 0
-741 4391 0
-742 4391 0
-743 4391 0
-744 4391 0
-871 4393 0
-872 4393 0
-873 4393 0
-874 4393 0
-875 4393 0
-876 4393 0
-877 4393 0
-878 4393 0
-879 4393 0
-880 4393 0
-881 4393 0
-882 4393 0
-883 4393 0
-884 4393 0
-885 4393 0
-886 4393 0
-887 4393 0
-888 4393 0
-889 4393 0
-890 4393 0
-895 4395 0
-896 4395 0
-897 4395 0
-898 4395 0
-899 4395 0
-900 4395 0
-1021 4395 0
-1022 4395 0
-1023 4395 0
-1024 4395 0
-1025 4395 0
-1026 4395 0
-1027 4395 0
-1028 4395 0
-1029 4395 0
-1030 4395 0
-1031 4395 0
-1032 4395 0
-1033 4395 0
-1034 4395 0
-1035 4395 0
-1036 4395 0
-1037 4395 0
-1038 4395 0
-1039 4395 0
-1040 4395 0
-1041 4395 0
-1042 4395 0
-1043 4395 0
-1044 4395 0
-2089 4397 0
-2094 4397 0
-2124 4397 0
-2125 4397 0
-2129 4397 0
-2130 4397 0
-2133 4397 0
-2136 4397 0
-4397 2130 2094 2129 2124 2089 2136 2133 2125 0
-4389 -4391 0
-4393 -4389 0
-4395 -4389 0
-4397 -4389 0
-4395 -4391 0
-4397 -4391 0
-4393 -4395 0
-601 4401 0
-602 4401 0
-603 4401 0
-604 4401 0
-605 4401 0
-606 4401 0
-607 4401 0
-608 4401 0
-609 4401 0
4401 -610 0
-611 4401 0
4401 -612 0
-613 4401 0
-617 4401 0
-621 4401 0
-624 4401 0
-649 4401 0
-650 4401 0
-651 4401 0
-652 4401 0
-653 4401 0
-654 4401 0
-655 4401 0
-656 4401 0
4401 -657 0
-658 4401 0
-659 4401 0
-660 4401 0
-661 4401 0
-662 4401 0
-663 4401 0
-664 4401 0
-665 4401 0
-666 4401 0
4401 -667 0
-668 4401 0
-669 4401 0
4401 -670 0
4401 -671 0
4401 -672 0
4401 -673 0
4401 -674 0
-675 4401 0
4401 -676 0
-677 4401 0
4401 -678 0
-679 4401 0
-680 4401 0
4401 -681 0
-682 4401 0
-4401 622 667 684 673 671 665 621 615 612 676 650 608 616 609 606 623 672 601 653 663 607 669 618 656 657 649 610 652 617 602 605 655 675 611 624 654 660 662 664 614 666 603 604 670 619 678 658 674 620 677 659 668 661 679 680 681 651 682 613 683 0
4407 -2091 0
-4407 2095 2093 2117 2096 2103 2090 2107 2098 2104 2100 2115 2108 2109 2114 2112 2091 2113 2116 2101 2092 2097 0
150 -4409 74 127 89 129 63 73 148 149 147 62 70 64 144 66 68 60 57 59 72 71 76 58 75 79 55 56 77 83 84 80 65 61 69 78 87 88 82 86 81 90 67 130 133 128 131 135 136 132 134 139 85 141 138 137 140 143 142 146 145 0
-4410 0
-721 4411 0
-722 4411 0
-723 4411 0
-724 4411 0
-725 4411 0
-726 4411 0
-727 4411 0
-728 4411 0
-729 4411 0
-730 4411 0
-731 4411 0
-732 4411 0
-733 4411 0
-734 4411 0
-735 4411 0
-736 4411 0
-737 4411 0
-738 4411 0
-739 4411 0
-740 4411 0
-741 4411 0
-742 4411 0
-743 4411 0
-744 4411 0
731 -4411 678 729 734 725 668 671 672 736 665 726 664 738 721 658 673 669 662 670 677 659 681 656 676 654 661 652 674 655 679 680 651 660 683 727 675 663 723 657 682 724 649 650 653 730 684 666 733 737 735 667 728 732 739 740 741 742 743 744 722 0
-4412 0
-4413 816 876 834 817 812 807 809 894 803 802 804 810 813 814 881 811 805 808 801 818 819 799 821 822 823 824 825 826 827 828 806 830 829 832 831 833 871 872 873 874 875 820 877 878 879 880 800 882 883 884 885 886 887 888 889 890 891 815 892 893 0
-4414 0
-4415 1034 964 957 971 958 982 1044 979 980 1030 972 951 961 950 953 949 960 955 973 966 969 954 967 975 959 965 962 956 977 978 963 952 968 976 983 984 1021 970 1023 981 1022 1026 1027 1025 1029 1028 1031 1032 1033 1024 1035 974 1037 1036 1038 1039 1041 1042 1043 1040 0
-4416 0
-2103 4417 0
-2107 4417 0
-2108 4417 0
-2109 4417 0
-2112 4417 0
-2113 4417 0
-2115 4417 0
-2116 4417 0
-2117 4417 0
-4417 2130 2124 2107 2101 2100 2104 2108 2115 2136 2103 2117 2125 2129 2133 2113 2112 2116 2109 2114 0
-4418 0
4413 4409 4415 4417 4414 4412 4416 4410 4418 0
4411 4413 4415 4417 4414 4412 4416 4410 4418 0
-100 4419 0
-101 4419 0
-102 4419 0
-103 4419 0
-104 4419 0
-105 4419 0
-106 4419 0
-107 4419 0
-108 4419 0
-109 4419 0
-110 4419 0
-111 4419 0
-112 4419 0
4419 -113 0
-114 4419 0
-115 4419 0
-116 4419 0
-117 4419 0
-610 4421 0
-612 4421 0
-703 4421 0
4421 -710 0
-835 4423 0
-840 4423 0
-841 4423 0
-843 4423 0
-844 4423 0
-845 4423 0
-847 4423 0
-849 4423 0
-852 4423 0
-853 4423 0
-861 4423 0
-864 4423 0
-865 4423 0
-866 4423 0
-870 4423 0
4425 -903 0
4425 -909 0
4425 -911 0
4425 -913 0
4425 -915 0
4425 -921 0
4425 -989 0
4425 -995 0
4425 -997 0
4425 -1005 0
4427 -2127 0
-4427 -4425 -4419 0
-4427 -4425 -4421 0
-4423 -4427 -4425 0
-1 4429 0
-595 4431 0
-596 4431 0
4431 -597 0
-598 4431 0
4431 -599 0
-600 4431 0
-625 4431 0
-626 4431 0
-627 4431 0
-628 4431 0
-629 4431 0
-630 4431 0
-631 4431 0
-632 4431 0
-633 4431 0
-634 4431 0
-635 4431 0
-636 4431 0
-637 4431 0
-638 4431 0
-639 4431 0
-640 4431 0
-641 4431 0
-642 4431 0
-643 4431 0
4431 -644 0
-645 4431 0
-646 4431 0
-647 4431 0
-648 4431 0
-4431 598 644 639 642 597 596 630 595 636 640 626 648 643 638 633 634 600 629 632 628 627 635 637 631 625 647 646 641 645 599 0
-775 4433 0
-776 4433 0
-777 4433 0
-778 4433 0
-779 4433 0
-780 4433 0
-783 4433 0
-784 4433 0
-785 4433 0
-787 4433 0
-788 4433 0
-789 4433 0
-790 4433 0
-791 4433 0
-792 4433 0
-793 4433 0
-794 4433 0
-795 4433 0
-796 4433 0
-797 4433 0
-798 4433 0
-896 4435 0
-898 4435 0
-925 4435 0
-926 4435 0
-927 4435 0
-928 4435 0
-929 4435 0
-930 4435 0
-931 4435 0
-932 4435 0
-933 4435 0
-934 4435 0
-935 4435 0
-936 4435 0
-937 4435 0
-938 4435 0
-939 4435 0
-940 4435 0
-941 4435 0
-942 4435 0
-943 4435 0
-944 4435 0
-945 4435 0
-946 4435 0
-947 4435 0
-948 4435 0
-2089 4437 0
-2094 4437 0
-2099 4437 0
-2102 4437 0
-2105 4437 0
-2106 4437 0
-2110 4437 0
-2111 4437 0
-4437 2089 2106 2102 2099 2105 2110 2111 2094 0
-4429 -4431 0
-4433 -4429 0
-4435 -4429 0
-4437 -4429 0
-4435 -4431 0
-4437 -4431 0
-199 4439 0
-200 4439 0
4439 -201 0
-202 4439 0
-203 4439 0
-204 4439 0
-205 4439 0
-206 4439 0
-207 4439 0
-208 4439 0
-209 4439 0
-210 4439 0
-211 4439 0
-212 4439 0
-213 4439 0
-214 4439 0
-215 4439 0
-216 4439 0
-217 4439 0
-218 4439 0
-219 4439 0
4439 -220 0
-221 4439 0
-222 4439 0
-223 4439 0
-224 4439 0
-225 4439 0
-226 4439 0
-227 4439 0
-228 4439 0
-4439 201 200 220 214 218 217 224 221 215 223 204 211 228 216 225 210 199 208 207 202 226 205 219 222 203 213 206 209 227 212 0
-547 4441 0
-548 4441 0
-549 4441 0
-550 4441 0
-551 4441 0
-552 4441 0
-553 4441 0
-554 4441 0
-555 4441 0
-556 4441 0
-1196 4443 0
-1197 4443 0
-1198 4443 0
-1199 4443 0
-1201 4443 0
-1205 4443 0
-1206 4443 0
-1209 4443 0
-1210 4443 0
-1216 4443 0
-1219 4443 0
-1223 4443 0
-1939 4447 0
-1940 4447 0
-1941 4447 0
-1942 4447 0
-1943 4447 0
-1944 4447 0
-1945 4447 0
-1946 4447 0
-1947 4447 0
-1948 4447 0
-1949 4447 0
-1950 4447 0
-1951 4447 0
-1952 4447 0
-1953 4447 0
-1954 4447 0
-1955 4447 0
-1956 4447 0
-1957 4447 0
-1958 4447 0
-1959 4447 0
-1960 4447 0
-1961 4447 0
-1962 4447 0
-1963 4447 0
-1964 4447 0
-1965 4447 0
-1966 4447 0
-1967 4447 0
-1968 4447 0
-4447 1959 1940 1939 1942 1947 1948 1946 1952 1954 1957 1941 1951 1955 1956 1950 1963 1945 1968 1953 1965 1944 1958 1943 1960 1962 1964 1949 1966 1961 1967 0
-4441 -4439 0
-4443 -4439 0
-4447 -4439 0
-4443 -4441 0
-4447 -4441 0
-230 4449 0
-231 4449 0
4449 -232 0
4449 -233 0
4449 -234 0
4449 -238 0
-240 4449 0
4449 -241 0
-242 4449 0
4449 -243 0
-244 4449 0
-246 4449 0
4449 -247 0
4449 -249 0
4449 -253 0
-254 4449 0
4449 -255 0
-256 4449 0
4449 -257 0
4449 -258 0
4449 -260 0
4449 -261 0
-262 4449 0
-263 4449 0
-264 4449 0
4449 -265 0
4449 -266 0
-267 4449 0
4449 -268 0
4449 -269 0
4449 -270 0
4449 -271 0
4449 -272 0
4449 -273 0
-274 4449 0
4449 -275 0
4449 -276 0
4449 -277 0
4449 -278 0
4449 -279 0
-280 4449 0
4449 -281 0
4449 -282 0
4449 -283 0
-284 4449 0
4449 -285 0
-4449 254 243 244 271 287 253 262 257 273 239 230 266 251 255 240 234 245 237 247 242 249 246 284 248 235 268 272 256 236 258 259 260 261 241 263 233 265 231 267 250 269 270 232 278 264 252 275 276 277 238 279 280 281 282 283 274 285 286 288 229 0
4451 -575 0
-1429 4455 0
-1440 4455 0
-1443 4455 0
-1445 4455 0
-1462 4455 0
-1480 4455 0
-4455 1431 1463 1471 1464 1423 1470 1424 1425 1462 1460 1447 1466 1454 1444 1473 1448 1442 1437 1479 1455 1439 1475 1445 1436 1441 1433 1451 1456 1446 1468 1474 1480 1443 1457 1432 1438 1426 1472 1450 1465 1467 1476 1477 1478 1461 1427 1434 1458 1459 1469 1449 1452 1430 1440 1453 1428 1429 1435 1481 1482 0
-1977 4457 0
-1978 4457 0
-1979 4457 0
-1980 4457 0
-1982 4457 0
-1983 4457 0
-1984 4457 0
-1985 4457 0
-1986 4457 0
-1989 4457 0
-1990 4457 0
-2012 4457 0
-2013 4457 0
-2014 4457 0
-2015 4457 0
-2016 4457 0
-2019 4457 0
-2020 4457 0
-2023 4457 0
-2024 4457 0
-2027 4457 0
-4457 -4451 -4449 0
-289 4459 0
-290 4459 0
-291 4459 0
-292 4459 0
-293 4459 0
-294 4459 0
-295 4459 0
-296 4459 0
-297 4459 0
-298 4459 0
-299 4459 0
-300 4459 0
-301 4459 0
-302 4459 0
-303 4459 0
-304 4459 0
-305 4459 0
-306 4459 0
-307 4459 0
-308 4459 0
-309 4459 0
-310 4459 0
-311 4459 0
-312 4459 0
-313 4459 0
-314 4459 0
-315 4459 0
-316 4459 0
-317 4459 0
-318 4459 0
-319 4459 0
-320 4459 0
-321 4459 0
-322 4459 0
-323 4459 0
-324 4459 0
-325 4459 0
-326 4459 0
-327 4459 0
-328 4459 0
-329 4459 0
-330 4459 0
-331 4459 0
-332 4459 0
-333 4459 0
-334 4459 0
-335 4459 0
-336 4459 0
-337 4459 0
-338 4459 0
-339 4459 0
-340 4459 0
-341 4459 0
-342 4459 0
-343 4459 0
-344 4459 0
-345 4459 0
-346 4459 0
-347 4459 0
-348 4459 0
-4459 312 294 321 310 322 346 292 331 300 318 325 341 301 302 311 299 337 305 309 296 340 304 326 348 315 330 303 339 329 327 295 338 343 297 313 293 307 323 333 290 334 306 336 298 320 328 332 316 314 308 345 317 324 291 289 344 335 319 347 342 0
-4460 0
-582 4461 0
-4461 589 591 593 584 576 583 582 579 586 592 581 587 594 588 585 590 577 578 580 0
-4462 0
-1285 4463 0
-1288 4463 0
-1293 4463 0
-1299 4463 0
-1300 4463 0
-1312 4463 0
-1314 4463 0
-1318 4463 0
-4463 1301 1308 1303 1307 1289 1297 1287 1292 1288 1321 1295 1286 1327 1298 1299 1290 1296 1302 1294 1304 1305 1291 1322 1285 1313 1310 1311 1312 1338 1314 1315 1316 1317 1318 1319 1320 1309 1300 1323 1324 1325 1326 1293 1328 1329 1330 1331 1332 1333 1334 1335 1336 1306 1337 1339 1340 1341 1342 1343 1344 0
-4464 0
-1519 4465 0
-1536 4465 0
-1537 4465 0
-1538 4465 0
-1539 4465 0
-1540 4465 0
-1541 4465 0
-1542 4465 0
-4465 1511 1537 1483 1485 1533 1504 1519 1527 1514 1512 1494 1516 1535 1495 1497 1509 1486 1491 1508 1524 1520 1513 1515 1492 1490 1528 1505 1542 1507 1506 1487 1503 1502 1522 1529 1498 1500 1510 1521 1539 1501 1523 1530 1496 1541 1536 1489 1531 1534 1532 1493 1499 1484 1488 1525 1538 1526 1540 1517 1518 0
-4466 0
4467 -2086 0
2073 2043 -4467 2029 2069 2060 2088 2066 2038 2058 2046 2063 2054 2083 2087 2042 2086 2033 2079 2053 2030 2037 2055 2032 2077 2064 2048 2040 2078 2061 2045 2041 2034 2065 2067 2070 2047 2059 2076 2049 2071 2082 2057 2039 2052 2081 2050 2072 2084 2056 2080 2074 2044 2068 2062 2051 2035 2031 2085 2075 2036 0
-4468 0
-4463 -4459 -4461 0
4459 4461 4463 4465 4460 4464 4462 4466 4468 0
-1430 4475 0
-1439 4475 0
-1441 4475 0
-1443 4475 0
-1445 4475 0
-1446 4475 0
-4475 1434 1484 1506 1511 1438 1491 1504 1423 1510 1486 1513 1503 1431 1499 1436 1443 1444 1428 1514 1515 1489 1493 1502 1498 1492 1435 1505 1445 1490 1508 1424 1495 1496 1429 1432 1494 1425 1507 1427 1517 1518 1512 1501 1516 1487 1437 1442 1446 1483 1509 1426 1440 1500 1497 1485 1488 1430 1439 1441 1433 0
-199 4479 0
-200 4479 0
4479 -201 0
-202 4479 0
-203 4479 0
-204 4479 0
-325 4479 0
-330 4479 0
-335 4479 0
-336 4479 0
-339 4479 0
-340 4479 0
-341 4479 0
-342 4479 0
-345 4479 0
-346 4479 0
-4479 201 341 344 204 346 339 199 325 327 329 348 332 203 200 336 328 326 340 342 338 335 347 334 343 202 337 345 331 333 330 0
-547 4481 0
-552 4481 0
-578 4481 0
-581 4481 0
-585 4481 0
-586 4481 0
-590 4481 0
-591 4481 0
-1196 4483 0
-1197 4483 0
-1393 4485 0
-1395 4485 0
-1396 4485 0
-1397 4485 0
-1398 4485 0
-1519 4485 0
-1525 4485 0
-1541 4485 0
-4485 1393 1533 1537 1394 1398 1535 1529 1536 1523 1396 1397 1524 1519 1539 1542 1528 1522 1395 1541 1527 1526 1534 1525 1520 1521 1538 1532 1540 1530 1531 0
-1939 4487 0
-1940 4487 0
-1941 4487 0
-1942 4487 0
-1943 4487 0
-1944 4487 0
-2065 4487 0
-2066 4487 0
-2067 4487 0
-2068 4487 0
4487 -2069 0
-2070 4487 0
-2071 4487 0
-2072 4487 0
-2073 4487 0
-2074 4487 0
-2075 4487 0
-2076 4487 0
-2079 4487 0
-2080 4487 0
-2082 4487 0
4487 -2083 0
-2084 4487 0
-2085 4487 0
-2086 4487 0
-2087 4487 0
-2088 4487 0
-4487 2086 1940 2069 1939 2076 2066 2072 2077 2079 2083 2071 2073 2081 2065 2074 2067 2087 2068 2082 2078 1941 2085 1944 2080 2075 2084 2088 2070 1943 1942 0
-4479 -4481 0
-4483 -4479 0
-4479 -4487 0
-4481 -4487 0
-4485 -4483 0
4489 -225 0
4489 -255 0
4491 -575 0
4497 -1953 0
-1957 4497 0
-1958 4497 0
-1959 4497 0
-1960 4497 0
-1961 4497 0
-1962 4497 0
-1963 4497 0
-1964 4497 0
-1965 4497 0
-1966 4497 0
-1967 4497 0
-1968 4497 0
-2007 4497 0
-4497 1994 1960 1955 1995 1996 1945 2015 1946 1953 1967 2019 1964 2001 1968 1957 1966 1958 2006 1956 1951 1950 1952 1997 2028 1959 2011 2012 2004 2009 2013 2016 2018 2014 2002 1948 1998 1963 1962 2020 1954 2021 2005 1965 2010 2000 2022 2003 1949 1961 1993 2017 2007 2025 1999 2024 2026 2023 1947 2008 2027 0
-4497 -4491 -4489 0
-255 4499 0
-4499 256 253 271 277 260 325 259 262 263 267 281 266 265 272 254 341 280 255 268 278 273 261 275 276 339 269 279 264 270 282 283 274 285 286 288 258 326 327 328 329 284 331 332 333 330 335 336 337 338 257 340 334 342 343 344 345 346 347 348 287 0
-4500 0
-575 4501 0
-4501 562 563 574 558 575 564 566 591 578 581 570 586 567 572 571 557 585 590 559 0
-4502 0
-4503 1258 1268 1255 1273 1321 1254 1257 1256 1271 1264 1259 1260 1261 1262 1263 1329 1338 1265 1253 1327 1269 1270 1279 1272 1249 1250 1275 1276 1277 1278 1267 1280 1281 1282 1283 1284 1274 1322 1323 1324 1325 1326 1251 1328 1252 1330 1331 1332 1333 1334 1335 1336 1266 1337 1339 1340 1341 1342 1343 1344 0
-4504 0
-1531 4505 0
-1532 4505 0
-1533 4505 0
-1534 4505 0
-1535 4505 0
-1536 4505 0
-1537 4505 0
-1538 4505 0
-1539 4505 0
-1540 4505 0
-1541 4505 0
-1542 4505 0
-4505 1447 1455 1468 1450 1475 1464 1472 1533 1471 1466 1537 1456 1536 1528 1527 1530 1470 1519 1542 1524 1460 1535 1522 1457 1473 1521 1453 1541 1467 1454 1478 1461 1520 1469 1479 1474 1477 1451 1476 1459 1523 1540 1452 1465 1480 1462 1449 1458 1534 1532 1448 1531 1463 1482 1525 1538 1526 1539 1481 1529 0
-4506 0
-1993 4507 0
4507 -1996 0
4507 -1997 0
-2000 4507 0
-2001 4507 0
-2065 4507 0
4507 -2066 0
4507 -2069 0
-2070 4507 0
4507 -2073 0
-2074 4507 0
1994 2017 -4507 2022 1999 2069 2020 2083 2024 1997 2073 2003 2070 2065 2074 2021 1998 2023 2004 2008 2068 2011 2066 2014 2015 2013 2087 2016 2010 2028 2086 2012 2077 2088 2026 2079 2067 2002 2085 2071 2025 2019 2018 2075 2078 1996 2007 2080 1993 2006 2009 2005 2072 2000 2082 2081 2076 2027 1995 2084 2001 0
-4508 0
-4501 -4499 -4507 0
4499 4501 4503 4505 4500 4504 4502 4506 4508 0
-1399 4515 0
-1400 4515 0
-1402 4515 0
-1408 4515 0
-1411 4515 0
-1412 4515 0
-1413 4515 0
-1414 4515 0
-1416 4515 0
-1417 4515 0
-1419 4515 0
-1420 4515 0
-1421 4515 0
-1422 4515 0
-4515 1405 1498 1504 1511 1399 1414 1485 1492 1502 1412 1403 1517 1505 1411 1513 1407 1515 1514 1490 1409 1400 1401 1489 1493 1495 1402 1509 1415 1510 1491 1501 1419 1420 1508 1422 1416 1496 1503 1516 1518 1421 1413 1507 1487 1500 1488 1494 1483 1404 1410 1506 1408 1512 1499 1406 1486 1418 1417 1484 1497 0
4517 -1945 0
-1947 4517 0
-1948 4517 0
4517 -1950 0
4517 -1951 0
4517 -1953 0
4517 -1954 0
4517 -1955 0
4517 -1956 0
4517 -1957 0
-1958 4517 0
4517 -1959 0
4517 -1960 0
-1961 4517 0
4517 -1962 0
4517 -1963 0
4517 -1964 0
-1965 4517 0
4517 -1966 0
-1967 4517 0
4517 -1968 0
-4517 1960 1950 1955 2029 1964 2043 1945 2062 2038 2060 1967 2056 1957 2040 1959 1956 2054 1953 1958 1965 2030 1968 1962 1966 1947 2041 2039 2045 1948 2042 2046 2032 2055 1951 1952 2048 1963 2036 2050 1946 2052 1949 2047 2033 2063 1961 2057 2064 2034 2044 2058 2053 2049 1954 2061 2037 2059 2031 2051 2035 0
4519 -202 0
4519 -204 0
4519 -229 0
4519 -232 0
-238 4519 0
-240 4519 0
4519 -241 0
4519 -243 0
-244 4519 0
4519 -249 0
-4519 232 201 252 230 200 248 243 229 241 202 245 239 199 251 244 234 203 246 236 238 249 235 242 231 204 240 247 233 250 237 0
-561 4521 0
-1226 4523 0
-1396 4525 0
-4525 1398 1395 1433 1397 1446 1423 1393 1432 1437 1425 1441 1394 1424 1444 1443 1445 1435 1427 1440 1431 1428 1426 1434 1442 1430 1436 1429 1438 1439 1396 0
-1939 4527 0
-1940 4527 0
-1941 4527 0
-1942 4527 0
-1943 4527 0
-1944 4527 0
-1971 4527 0
-1972 4527 0
-1975 4527 0
-1976 4527 0
-1977 4527 0
-1978 4527 0
-1979 4527 0
-1980 4527 0
-1981 4527 0
-1982 4527 0
-4527 1988 1981 1939 1974 1980 1989 1973 1990 1991 1987 1977 1942 1979 1944 1976 1982 1941 1983 1971 1940 1969 1992 1978 1986 1970 1975 1985 1984 1943 1972 0
-4521 -4519 0
-4523 -4519 0
-4527 -4519 0
-55 4529 0
-56 4529 0
-57 4529 0
-775 4531 0
-799 4531 0
-800 4531 0
-801 4531 0
4533 -951 0
4533 -988 0
-1229 4535 0
-1230 4535 0
-1426 4537 0
-1455 4537 0
-1485 4537 0
-1486 4537 0
-1487 4537 0
-4537 1449 1483 1450 1451 1489 1485 1491 1487 1490 1524 1447 1486 1427 1519 1484 1428 1423 1488 1448 1521 1520 1424 1452 1522 1453 1426 1523 1455 1454 1425 0
-4529 -4531 0
-4531 -4533 0
-4535 -4533 0
4539 -1 0
-850 4541 0
-852 4541 0
-854 4541 0
-856 4541 0
-858 4541 0
-859 4541 0
-860 4541 0
-861 4541 0
4543 -995 0
-1196 4545 0
-1197 4545 0
-1265 4545 0
-1308 4545 0
-1309 4545 0
-1393 4547 0
-1395 4547 0
-1399 4547 0
-1400 4547 0
-1401 4547 0
-1402 4547 0
-1404 4547 0
-1405 4547 0
-1406 4547 0
-1407 4547 0
-1408 4547 0
-1409 4547 0
-1410 4547 0
-1429 4547 0
-1430 4547 0
-1431 4547 0
-1432 4547 0
-1433 4547 0
-1456 4547 0
-1457 4547 0
-1458 4547 0
-1459 4547 0
-1460 4547 0
-1461 4547 0
-1462 4547 0
-1463 4547 0
-1464 4547 0
-1492 4547 0
-1493 4547 0
-1494 4547 0
-1495 4547 0
-1496 4547 0
-1497 4547 0
-1498 4547 0
-1499 4547 0
-1500 4547 0
-1501 4547 0
-1502 4547 0
-1503 4547 0
-1504 4547 0
-1505 4547 0
-1506 4547 0
-1507 4547 0
-1508 4547 0
-1509 4547 0
-1527 4547 0
-1528 4547 0
4547 -1533 0
-1535 4547 0
-1536 4547 0
-4547 1463 1492 1529 1432 1393 1506 1495 1504 1496 1507 1534 1401 1457 1535 1394 1399 1405 1505 1497 1402 1400 1406 1508 1460 1527 1500 1528 1501 1408 1536 1533 1502 1461 1498 1410 1499 1433 1403 1493 1395 1456 1431 1407 1526 1404 1509 1462 1503 1434 1530 1429 1458 1525 1464 1494 1532 1409 1531 1459 1430 0
-4541 -4543 -4539 0
-4545 -4543 -4539 0
-4547 -4545 -4539 0
-1396 4557 0
-1413 4557 0
-1416 4557 0
-1417 4557 0
-1435 4557 0
-1437 4557 0
-1438 4557 0
-1440 4557 0
-1441 4557 0
-1442 4557 0
-1443 4557 0
-1445 4557 0
-1446 4557 0
4557 -1465 0
-1467 4557 0
4557 -1470 0
-1471 4557 0
-1472 4557 0
-1476 4557 0
-1477 4557 0
-1479 4557 0
-1481 4557 0
-1513 4557 0
-1541 4557 0
-4557 1396 1473 1397 1398 1510 1477 1541 1470 1445 1542 1514 1469 1516 1442 1537 1443 1480 1438 1439 1472 1465 1511 1411 1446 1419 1418 1420 1518 1517 1513 1478 1437 1512 1467 1436 1415 1471 1515 1475 1468 1444 1474 1417 1539 1422 1412 1479 1440 1416 1540 1413 1481 1441 1414 1476 1538 1482 1435 1466 1421 0
-1396 4567 0
-1397 4567 0
-1398 4567 0
-1399 4567 0
-1400 4567 0
-1401 4567 0
-1402 4567 0
-1403 4567 0
-1404 4567 0
-1411 4567 0
-1412 4567 0
-1413 4567 0
-1414 4567 0
-1415 4567 0
-1416 4567 0
-1435 4567 0
-1436 4567 0
-1437 4567 0
-1438 4567 0
-1439 4567 0
-1440 4567 0
-1456 4567 0
-1457 4567 0
-1458 4567 0
-1460 4567 0
-1461 4567 0
-1465 4567 0
-1466 4567 0
-1467 4567 0
-1468 4567 0
-1469 4567 0
4567 -1470 0
-1471 4567 0
-1472 4567 0
-1473 4567 0
-1474 4567 0
-1475 4567 0
-1476 4567 0
-1492 4567 0
-1493 4567 0
-1495 4567 0
-1496 4567 0
-1497 4567 0
-1510 4567 0
-1511 4567 0
4567 -1512 0
-1529 4567 0
-1530 4567 0
-1537 4567 0
-1538 4567 0
-1539 4567 0
-1540 4567 0
-1541 4567 0
-1542 4567 0
-4567 1398 1510 1473 1470 1465 1475 1440 1530 1397 1542 1529 1437 1541 1540 1496 1396 1527 1492 1528 1472 1438 1467 1537 1461 1468 1471 1493 1526 1403 1474 1399 1413 1402 1415 1456 1539 1494 1458 1412 1511 1416 1457 1400 1497 1436 1414 1469 1439 1466 1495 1460 1525 1401 1476 1404 1538 1411 1512 1435 1459 0
-86 4569 0
-799 4571 0
-800 4571 0
-801 4571 0
-948 4573 0
4573 -951 0
4573 -980 0
-1243 4575 0
-1244 4575 0
-4569 -4573 0
-4571 -4573 0
-4575 -4573 0
4579 -1 0
-851 4581 0
-852 4581 0
-853 4581 0
-855 4581 0
-856 4581 0
-857 4581 0
-858 4581 0
-861 4581 0
4583 -988 0
-1196 4585 0
-1197 4585 0
-1393 4587 0
-1395 4587 0
-1408 4587 0
-1453 4587 0
-4587 1463 1506 1464 1454 1394 1491 1500 1519 1521 1455 1407 1522 1393 1451 1505 1433 1536 1424 1498 1533 1524 1408 1432 1425 1452 1503 1520 1406 1450 1532 1423 1486 1535 1428 1531 1410 1508 1509 1507 1427 1490 1462 1488 1453 1395 1431 1534 1430 1434 1489 1429 1487 1405 1409 1426 1523 1504 1499 1501 1502 0
-4581 -4583 -4579 0
-4587 -4585 -4579 0
4589 -1 0
-850 4591 0
-851 4591 0
-852 4591 0
-853 4591 0
-854 4591 0
-855 4591 0
-856 4591 0
-857 4591 0
-858 4591 0
-859 4591 0
-860 4591 0
-861 4591 0
4593 -980 0
-1196 4595 0
-1197 4595 0
-1393 4597 0
-1395 4597 0
-1405 4597 0
-1406 4597 0
-1407 4597 0
-1408 4597 0
-1417 4597 0
-1418 4597 0
-1421 4597 0
-1429 4597 0
-1430 4597 0
-1431 4597 0
-1432 4597 0
-1433 4597 0
-1434 4597 0
-1442 4597 0
-1443 4597 0
-1444 4597 0
-1445 4597 0
-1446 4597 0
-1463 4597 0
-1464 4597 0
-1480 4597 0
-1482 4597 0
-1509 4597 0
4597 -1516 0
-1517 4597 0
-4597 1395 1464 1498 1482 1443 1432 1504 1506 1534 1431 1393 1463 1478 1429 1410 1441 1515 1536 1517 1420 1535 1409 1532 1418 1477 1444 1434 1533 1501 1499 1509 1407 1421 1433 1445 1516 1481 1462 1480 1405 1446 1394 1408 1513 1507 1479 1514 1500 1503 1508 1442 1422 1505 1419 1518 1417 1502 1531 1430 1406 0
-4591 -4593 -4589 0
-4597 -4595 -4589 0
-1396 4607 0
-1398 4607 0
-1415 4607 0
-1424 4607 0
-1426 4607 0
-1435 4607 0
-1440 4607 0
4607 -1451 0
-1454 4607 0
4607 -1465 0
-1467 4607 0
-1471 4607 0
-1474 4607 0
-1476 4607 0
4607 -1487 0
-4607 1397 1465 1476 1510 1537 1455 1540 1470 1398 1427 1437 1469 1489 1524 1521 1439 1542 1396 1472 1512 1488 1473 1468 1412 1475 1435 1541 1414 1451 1452 1416 1428 1491 1511 1471 1440 1522 1438 1523 1436 1519 1520 1466 1453 1426 1425 1450 1467 1474 1487 1486 1423 1490 1424 1454 1538 1415 1539 1411 1413 0
-799 4611 0
-800 4611 0
-801 4611 0
4613 -903 0
4613 -951 0
4613 -995 0
-1250 4615 0
-1251 4615 0
-1286 4615 0
-1327 4615 0
-1328 4615 0
-4611 -4613 0
-4615 -4613 0
-255 4619 0
-257 4619 0
-258 4619 0
-289 4619 0
-290 4619 0
-294 4619 0
-296 4619 0
4619 -325 0
-330 4619 0
-557 4621 0
4621 -558 0
-559 4621 0
-577 4621 0
-578 4621 0
4621 -579 0
-580 4621 0
-581 4621 0
-626 4623 0
-628 4623 0
-649 4623 0
-650 4623 0
-651 4623 0
-653 4623 0
-656 4623 0
-687 4623 0
-688 4623 0
-689 4623 0
-691 4623 0
-692 4623 0
-1971 4625 0
-1972 4625 0
-1973 4625 0
-1974 4625 0
-1993 4625 0
-1994 4625 0
-1995 4625 0
-1996 4625 0
-1997 4625 0
-1998 4625 0
-1999 4625 0
-2000 4625 0
-2001 4625 0
-2029 4625 0
-2030 4625 0
-2031 4625 0
-2032 4625 0
-2033 4625 0
-2034 4625 0
-2035 4625 0
-2036 4625 0
-2037 4625 0
-4625 2037 1994 2069 1973 1971 2032 2066 1999 1996 1969 1997 2030 1993 2029 2068 2034 2067 2035 1998 2001 1972 2000 2065 2070 1970 1974 2031 1995 2036 2033 0
-2099 4627 0
-2100 4627 0
-2101 4627 0
-2102 4627 0
-2103 4627 0
-2104 4627 0
-2118 4627 0
-2119 4627 0
-2120 4627 0
-4627 2099 2120 2118 2103 2102 2104 2100 2101 2119 0
-4619 -4621 0
-4619 -4623 0
-4619 -4625 0
-4625 -4621 0
-4627 -4623 0
-4627 -4625 0
-4629 201 332 265 303 313 300 333 299 304 306 240 302 341 342 214 305 215 235 216 268 262 199 208 312 211 267 207 339 266 298 212 213 236 269 239 209 270 301 307 263 200 264 315 314 311 205 335 237 210 309 337 308 336 338 310 334 340 206 331 238 0
-4630 0
-4631 0
-4632 0
-636 4633 0
-728 4633 0
-731 4633 0
-4633 612 729 666 736 708 602 609 636 659 704 706 631 732 662 696 728 601 633 603 710 665 611 701 707 702 658 663 700 632 695 694 597 596 595 661 699 605 604 698 608 634 606 610 635 709 660 607 711 731 705 730 664 727 733 697 735 703 737 738 734 0
-4634 0
-1939 4635 0
-1940 4635 0
-1941 4635 0
-1945 4635 0
-1946 4635 0
-1947 4635 0
-1948 4635 0
-1949 4635 0
-1950 4635 0
-1951 4635 0
-1952 4635 0
-1953 4635 0
-1954 4635 0
-1955 4635 0
-1956 4635 0
-1975 4635 0
-1976 4635 0
-1977 4635 0
-1978 4635 0
-1979 4635 0
-1980 4635 0
-2002 4635 0
-2003 4635 0
-2004 4635 0
-2005 4635 0
-2006 4635 0
-2007 4635 0
-2008 4635 0
-2009 4635 0
-2010 4635 0
-2038 4635 0
-2039 4635 0
-2040 4635 0
-2041 4635 0
-2043 4635 0
-2044 4635 0
-2045 4635 0
-2046 4635 0
-2047 4635 0
-2048 4635 0
-2049 4635 0
-2050 4635 0
-2051 4635 0
-2052 4635 0
-2053 4635 0
-2054 4635 0
-2055 4635 0
-2076 4635 0
-2082 4635 0
-4635 2052 2079 2043 1951 1950 1952 1940 2051 1949 2044 2002 1954 1939 1955 2081 2040 2046 2073 2082 1948 2049 2053 1956 2071 2004 2008 2007 1976 2042 1946 1978 2075 2054 2038 1977 2074 2050 1945 2003 2039 1980 2055 2048 2072 2010 2077 1975 1947 1953 2076 1941 2047 2045 2078 2005 2080 1979 2009 2006 2041 0
-4636 0
4637 -2127 0
-4638 0
-4637 -4633 -4635 0
4629 4633 4635 4632 4630 4634 4631 4636 4638 0
4639 -225 0
4639 -277 0
4639 -285 0
4641 -575 0
4641 -585 0
-600 4643 0
-624 4643 0
-712 4643 0
-1942 4645 0
-1957 4645 0
-1958 4645 0
-1960 4645 0
-1963 4645 0
-1964 4645 0
-1965 4645 0
-1966 4645 0
-1967 4645 0
-1968 4645 0
-1981 4645 0
-1982 4645 0
-1983 4645 0
-1984 4645 0
-1985 4645 0
-1986 4645 0
-1987 4645 0
-1988 4645 0
-1989 4645 0
-1990 4645 0
-1991 4645 0
-1992 4645 0
-2011 4645 0
-2012 4645 0
-2013 4645 0
-2014 4645 0
-2015 4645 0
-2016 4645 0
-2017 4645 0
-2018 4645 0
-2019 4645 0
-2020 4645 0
-2021 4645 0
-2022 4645 0
4645 -2023 0
-2024 4645 0
-2025 4645 0
-2026 4645 0
-2027 4645 0
-2028 4645 0
4645 -2056 0
-2057 4645 0
-2058 4645 0
-2059 4645 0
-2061 4645 0
4645 -2062 0
4645 -2063 0
4645 -2064 0
-4645 1988 2056 2022 2028 2025 2015 2058 2060 1989 2088 2087 2086 2083 1943 2014 2059 1981 1961 1959 2084 2023 2061 1982 1984 2024 1967 1985 1986 2012 2013 2064 1942 2017 2057 2085 2062 2019 2020 2021 1992 1968 2018 1991 1966 1987 2016 2027 1960 2011 1962 1957 1964 2026 1958 1944 1965 1983 1990 1963 2063 0
-4643 -4639 -4641 0
-4639 -4645 -4641 0
-343 4649 0
-344 4649 0
-345 4649 0
-346 4649 0
-347 4649 0
-348 4649 0
-4649 221 206 277 271 245 246 262 298 217 222 218 300 281 278 203 276 301 265 241 282 273 318 348 205 243 210 208 275 220 267 219 264 299 331 335 202 316 207 302 263 303 279 242 317 274 272 334 244 336 266 343 345 346 209 344 280 333 204 347 332 0
-4650 0
-4651 549 562 574 548 571 582 590 592 553 566 554 563 587 585 570 0
-4652 0
-4654 0
-1942 4655 0
-1943 4655 0
-1946 4655 0
-1947 4655 0
-1948 4655 0
-1950 4655 0
-1957 4655 0
-1958 4655 0
-1959 4655 0
-1960 4655 0
-1961 4655 0
-1962 4655 0
-1981 4655 0
-1983 4655 0
-1984 4655 0
-1985 4655 0
-1986 4655 0
-2003 4655 0
-2004 4655 0
-2005 4655 0
-2006 4655 0
-2007 4655 0
-2011 4655 0
-2012 4655 0
-2013 4655 0
-2014 4655 0
-2015 4655 0
-2016 4655 0
-2017 4655 0
-2018 4655 0
-2019 4655 0
-2020 4655 0
-2021 4655 0
-2022 4655 0
-2038 4655 0
-2039 4655 0
-2040 4655 0
-2041 4655 0
-2042 4655 0
-2043 4655 0
-2056 4655 0
-2057 4655 0
-2058 4655 0
-2084 4655 0
-2086 4655 0
-2087 4655 0
-2088 4655 0
-4655 2011 2043 2019 2088 1983 2022 1942 2015 2083 2086 1945 2074 2039 2040 2073 2075 1962 1985 1950 2087 1959 2042 2057 2014 2002 2017 1948 1944 2084 2005 2018 2038 2016 2058 1981 1986 2006 2021 2012 2013 1946 2041 2020 2085 1982 2004 1943 2071 2072 2003 2056 1984 1961 1957 2076 1960 1949 1958 1947 2007 0
-4656 0
-4657 2089 2131 2096 2090 2112 2126 2116 2108 2091 2095 2113 2115 2107 2094 2129 2121 2124 2130 2110 2125 2133 2134 2136 2105 0
-4658 0
4651 4649 4655 4657 4654 4650 4656 4652 4658 0
-223 4659 0
-225 4659 0
-228 4659 0
-247 4659 0
-253 4659 0
-255 4659 0
-283 4659 0
-285 4659 0
-289 4659 0
-290 4659 0
-320 4659 0
-4659 253 291 254 287 255 249 248 225 247 251 289 288 290 227 322 283 285 228 324 224 284 250 252 223 319 286 320 321 323 226 0
-4660 0
-4661 0
-4662 0
-620 4663 0
-621 4663 0
-622 4663 0
-623 4663 0
-624 4663 0
-643 4663 0
-645 4663 0
-647 4663 0
-649 4663 0
-650 4663 0
-679 4663 0
-680 4663 0
-681 4663 0
-682 4663 0
-683 4663 0
-684 4663 0
-685 4663 0
-716 4663 0
-719 4663 0
-4663 685 643 651 680 686 715 681 620 647 645 619 648 683 687 720 719 679 718 649 650 717 682 621 623 716 624 684 644 622 646 0
-4664 0
-1963 4665 0
-1965 4665 0
-1966 4665 0
-1987 4665 0
-1988 4665 0
-1990 4665 0
-1991 4665 0
-1992 4665 0
-1993 4665 0
-1995 4665 0
-2023 4665 0
-2024 4665 0
-2027 4665 0
-2029 4665 0
-2030 4665 0
-2031 4665 0
-2059 4665 0
-2060 4665 0
-2062 4665 0
-2063 4665 0
-2064 4665 0
-4665 1995 2029 2025 2023 1967 1988 1991 1964 1992 1989 1987 1993 2030 1966 1963 2028 2027 1968 1965 1994 2064 2024 2060 2059 1990 2031 2026 2062 2061 2063 0
-4666 0
-2092 4667 0
-2093 4667 0
-2097 4667 0
-2099 4667 0
-2100 4667 0
-2101 4667 0
-2102 4667 0
-2103 4667 0
-2104 4667 0
-2106 4667 0
-2109 4667 0
-2111 4667 0
-2114 4667 0
-2117 4667 0
-2118 4667 0
-2119 4667 0
-2120 4667 0
-2122 4667 0
-2123 4667 0
-2127 4667 0
-2128 4667 0
-2132 4667 0
-2135 4667 0
-4667 2093 2099 2111 2132 2101 2103 2104 2117 2119 2100 2102 2120 2122 2114 2127 2118 2097 2098 2109 2123 2128 2106 2135 2092 0
-4668 0
-4659 -4663 0
-4659 -4665 0
-4659 -4667 0
-4667 -4663 0
-4667 -4665 0
4659 4663 4665 4667 4660 4664 4661 4666 4662 4668 0
4669 -239 0
4669 -270 0
4669 -294 0
4669 -296 0
4669 -305 0
4669 -310 0
4669 -313 0
4671 -547 0
4671 -551 0
4671 -552 0
4671 -556 0
-557 4671 0
4671 -558 0
4671 -559 0
4671 -561 0
4671 -564 0
4671 -567 0
4671 -569 0
4671 -572 0
4671 -575 0
-576 4671 0
4671 -577 0
4671 -578 0
4671 -579 0
-580 4671 0
-581 4671 0
4671 -583 0
-586 4671 0
4671 -589 0
4671 -591 0
4673 -595 0
4673 -596 0
4673 -597 0
-608 4673 0
4673 -610 0
-611 4673 0
4673 -612 0
4673 -626 0
4673 -629 0
-632 4673 0
-635 4673 0
4673 -636 0
-653 4673 0
-664 4673 0
-665 4673 0
4673 -700 0
4673 -701 0
-703 4673 0
4673 -706 0
4673 -708 0
4673 -710 0
4673 -721 0
-733 4673 0
-734 4673 0
4673 -735 0
4673 -736 0
-2032 4675 0
-2033 4675 0
-2036 4675 0
-2037 4675 0
-2044 4675 0
-2049 4675 0
-2053 4675 0
-2055 4675 0
-2067 4675 0
-2068 4675 0
4675 -2069 0
-4675 1999 1955 2051 2069 2082 2079 1996 2068 1941 1940 1980 1954 2001 2047 2070 1953 2037 2080 2052 1972 2010 2009 1956 1997 2034 1951 2000 2066 2008 2053 1998 2032 1969 2046 2033 2055 1977 2048 1952 2050 1975 2049 1973 1970 2035 2036 2054 1939 1974 1978 2067 2065 2078 1976 1971 2044 1979 2045 2077 2081 0
-4669 -4673 -4671 0
4679 -214 0
-216 4679 0
-225 4679 0
-249 4679 0
-270 4679 0
4679 -313 0
-314 4679 0
-340 4679 0
4679 -341 0
4681 -550 0
-561 4681 0
-575 4681 0
4681 -588 0
-610 4683 0
-612 4683 0
-703 4683 0
4683 -710 0
-711 4683 0
-734 4683 0
4683 -737 0
-738 4683 0
4687 -2127 0
-4679 -4683 -4681 0
-4687 -4679 -4681 0
-4687 -4683 -4681 0
-4689 230 272 271 220 222 297 292 245 257 243 325 282 278 294 256 221 261 234 276 242 202 317 229 258 260 232 231 241 277 274 275 218 217 233 296 280 281 273 316 293 330 295 203 244 279 348 318 219 204 327 328 329 326 343 344 345 346 347 246 259 0
-4690 0
-4691 0
-4692 0
-4693 726 628 669 667 673 691 671 600 657 653 598 630 689 724 599 672 625 639 688 641 627 640 629 638 690 654 615 614 652 626 670 676 712 616 613 618 642 674 692 637 675 725 655 693 678 713 714 721 722 723 617 668 656 739 740 741 742 743 744 677 0
-4694 0
-4696 0
-2120 4697 0
-4697 2124 2110 2131 2108 2099 2133 2112 2102 2115 2118 2113 2089 2120 2094 2090 2105 2096 2126 2100 2121 2107 2104 2116 2101 2134 2129 2095 2125 2119 2091 2130 2136 2103 0
-4698 0
4689 4693 4697 4692 4690 4694 4696 4691 4698 0
-205 4699 0
-210 4699 0
-255 4699 0
-266 4699 0
-267 4699 0
-289 4699 0
-290 4699 0
-299 4699 0
-301 4699 0
-302 4699 0
-332 4699 0
-333 4699 0
-334 4699 0
-335 4699 0
-548 4701 0
-557 4701 0
-570 4701 0
-574 4701 0
-578 4701 0
-582 4701 0
-585 4701 0
-587 4701 0
-602 4703 0
-605 4703 0
-650 4703 0
-651 4703 0
-659 4703 0
-660 4703 0
-685 4703 0
-686 4703 0
-687 4703 0
-695 4703 0
-696 4703 0
-697 4703 0
-698 4703 0
-727 4703 0
-1945 4705 0
-1946 4705 0
-1947 4705 0
-1948 4705 0
-1949 4705 0
-2004 4705 0
-2005 4705 0
-2006 4705 0
-2040 4705 0
-2041 4705 0
-2042 4705 0
4705 -2043 0
-2073 4705 0
-2074 4705 0
-2075 4705 0
-2076 4705 0
-4699 -4701 0
-4699 -4703 0
-4699 -4705 0
-4703 -4701 0
-4701 -4705 0
-241 4711 0
-247 4711 0
4711 -271 0
-273 4711 0
-283 4711 0
-299 4711 0
-304 4711 0
-305 4711 0
-307 4711 0
-316 4711 0
-561 4713 0
4713 -582 0
-583 4713 0
-584 4713 0
4713 -585 0
4713 -586 0
-938 4715 0
-964 4715 0
4715 -967 0
4715 -995 0
4715 -1000 0
-1267 4717 0
-1268 4717 0
-4711 -4713 0
-4715 -4711 0
-4717 -4715 0
4719 -1 0
-205 4721 0
-212 4721 0
-219 4721 0
-230 4721 0
-243 4721 0
-244 4721 0
-249 4721 0
-257 4721 0
-276 4721 0
-277 4721 0
4721 -278 0
-285 4721 0
-286 4721 0
-294 4721 0
-309 4721 0
-311 4721 0
-322 4721 0
-324 4721 0
-325 4721 0
-327 4721 0
-339 4721 0
-340 4721 0
-346 4721 0
-348 4721 0
4723 -547 0
-548 4723 0
-549 4723 0
-551 4723 0
-565 4723 0
-566 4723 0
-577 4723 0
-578 4723 0
4723 -589 0
-590 4723 0
-594 4723 0
4725 -949 0
-953 4725 0
-973 4725 0
-985 4725 0
4725 -989 0
4725 -1014 0
-1017 4725 0
-1018 4725 0
-1198 4727 0
-1215 4727 0
-1219 4727 0
-1220 4727 0
-1239 4727 0
-1240 4727 0
-1273 4727 0
-1274 4727 0
-1285 4727 0
-1286 4727 0
-1296 4727 0
-1313 4727 0
-1314 4727 0
-1321 4727 0
-1343 4727 0
-1344 4727 0
-4719 -4721 -4723 0
-4725 -4719 -4721 0
-4727 -4719 -4721 0
-4725 -4719 -4723 0
-4727 -4719 -4723 0
-207 4731 0
-240 4731 0
-280 4731 0
-291 4731 0
-4731 201 204 279 228 264 254 233 209 302 240 215 221 341 213 234 246 222 208 214 231 312 342 252 245 227 216 267 200 287 258 259 260 261 210 265 266 239 251 270 232 255 281 282 288 269 296 297 207 303 280 313 314 315 291 237 329 336 330 335 238 0
-208 4741 0
-335 4741 0
4743 -551 0
4743 -575 0
4745 -919 0
4745 -951 0
-1233 4747 0
-1234 4747 0
-1265 4747 0
-1266 4747 0
-1308 4747 0
-1309 4747 0
-1337 4747 0
-1338 4747 0
-4741 -4743 -4745 0
-4747 -4743 -4745 0
-296 4751 0
4751 -305 0
-564 4753 0
-583 4753 0
-935 4755 0
-962 4755 0
-4753 -4751 0
-4755 -4751 0
4759 -1 0
-205 4761 0
-219 4761 0
-242 4761 0
-243 4761 0
-248 4761 0
-250 4761 0
4761 -278 0
-294 4761 0
-307 4761 0
-310 4761 0
-319 4761 0
-320 4761 0
-338 4761 0
-343 4761 0
-344 4761 0
-548 4763 0
-561 4763 0
-563 4763 0
-582 4763 0
-585 4763 0
-586 4763 0
-959 4765 0
4765 -979 0
4765 -980 0
4765 -995 0
-1015 4765 0
4765 -1016 0
-1195 4767 0
-1199 4767 0
-1243 4767 0
4767 -1327 0
-4759 -4761 -4763 0
-4765 -4759 -4761 0
-4767 -4759 -4761 0
-4765 -4759 -4763 0
-4767 -4761 -4763 0
4769 -1 0
-210 4771 0
-219 4771 0
-233 4771 0
-239 4771 0
-240 4771 0
-243 4771 0
-245 4771 0
-246 4771 0
-260 4771 0
-261 4771 0
-281 4771 0
-282 4771 0
-296 4771 0
-297 4771 0
-302 4771 0
-314 4771 0
4773 -547 0
-548 4773 0
-549 4773 0
-554 4773 0
-556 4773 0
-559 4773 0
-565 4773 0
-566 4773 0
-569 4773 0
-571 4773 0
-580 4773 0
4773 -589 0
-590 4773 0
-592 4773 0
-594 4773 0
-4773 549 576 590 589 548 559 594 566 556 571 580 587 578 565 547 592 554 569 577 0
-956 4775 0
-957 4775 0
-962 4775 0
-963 4775 0
-993 4775 0
-999 4775 0
-1198 4777 0
-1229 4777 0
-1240 4777 0
-1285 4777 0
-1313 4777 0
-1314 4777 0
-1344 4777 0
-4771 -4769 -4773 0
-4771 -4775 -4769 0
-4777 -4771 -4769 0
-4775 -4769 -4773 0
-4779 40 16 33 57 54 61 145 29 30 133 50 65 38 15 34 43 44 49 2 53 100 71 146 60 144 64 9 66 37 56 3 75 76 10 6 85 86 72 90 93 82 101 108 109 114 115 121 122 131 132 81 89 134 138 67 139 39 143 137 140 0
-4780 0
-214 4781 0
-4781 236 279 201 341 247 238 208 269 228 232 248 312 200 335 207 214 242 213 204 241 227 254 255 258 259 262 263 231 265 338 270 264 252 251 280 283 274 288 291 273 298 306 299 237 313 319 320 329 284 331 307 235 336 337 332 330 342 343 344 287 0
-4782 0
-563 4783 0
-4783 552 558 585 553 573 568 574 561 579 560 570 562 557 586 575 555 572 563 581 584 582 0
-4784 0
-4785 1026 900 904 923 995 903 951 943 934 980 928 931 932 933 924 937 938 1009 944 947 948 1040 959 954 955 910 927 960 961 994 909 969 970 975 976 966 965 983 984 1008 979 896 1002 1003 1016 950 958 1015 897 987 1027 1025 1031 1032 1033 1028 1037 1034 1038 1039 0
-4786 0
-1337 4787 0
-4788 0
-4783 -4781 -4787 0
4781 4779 4783 4785 4780 4784 4782 4786 4788 0
-87 4789 0
-88 4789 0
-141 4789 0
-142 4789 0
-217 4791 0
-218 4791 0
-256 4791 0
-257 4791 0
-268 4791 0
4791 -271 0
-272 4791 0
-275 4791 0
-276 4791 0
-285 4791 0
4791 -292 0
-293 4791 0
-304 4791 0
-305 4791 0
-316 4791 0
-325 4791 0
-326 4791 0
-339 4791 0
-345 4791 0
-346 4791 0
-550 4793 0
-551 4793 0
-564 4793 0
-567 4793 0
-583 4793 0
-588 4793 0
-591 4793 0
-593 4793 0
-908 4795 0
-913 4795 0
-919 4795 0
-953 4795 0
-968 4795 0
-981 4795 0
-988 4795 0
-1001 4795 0
-1021 4795 0
-1035 4795 0
-1267 4797 0
-1268 4797 0
-1300 4797 0
-1301 4797 0
-1322 4797 0
-4789 -4795 0
-4793 -4791 0
-4795 -4791 0
-4793 -4795 0
-4797 -4793 0
4799 -667 0
-669 4799 0
-702 4799 0
-703 4799 0
-1462 4803 0
-1465 4803 0
-1467 4803 0
-1468 4803 0
-1477 4803 0
-1478 4803 0
-1492 4803 0
-1493 4803 0
-1499 4803 0
-1501 4803 0
-4803 1466 1498 1500 1465 1456 1430 1538 1457 1492 1468 1510 1478 1531 1429 1532 1514 1493 1436 1467 1435 1537 1526 1462 1441 1513 1499 1501 1477 1442 1525 0
-1987 4805 0
-4805 1988 2008 2059 2083 2013 2077 2078 2023 2044 2038 2060 2011 2002 2046 2014 2012 1975 2056 1987 1982 2039 2072 2084 1976 2024 2047 2071 2045 2003 1981 0
-2105 4807 0
-2106 4807 0
-2107 4807 0
-2108 4807 0
-2109 4807 0
-2124 4807 0
-2125 4807 0
-4807 2125 2121 2106 2123 2105 2124 2107 2108 2109 2122 0
-4807 -4799 0
-4807 -4805 0
-1393 4813 0
-1396 4813 0
-1397 4813 0
-1399 4813 0
-1400 4813 0
-1406 4813 0
-1412 4813 0
-1413 4813 0
-1414 4813 0
-1419 4813 0
-1420 4813 0
-1423 4813 0
-1424 4813 0
-1437 4813 0
-1438 4813 0
-1443 4813 0
-1444 4813 0
-1447 4813 0
4813 -1450 0
-1451 4813 0
-1469 4813 0
4813 -1470 0
-1471 4813 0
-1472 4813 0
-1480 4813 0
-1483 4813 0
-1484 4813 0
-1486 4813 0
-1487 4813 0
-1495 4813 0
-1503 4813 0
-1504 4813 0
-1505 4813 0
4813 -1512 0
4813 -1515 0
-1516 4813 0
4813 -1519 0
-1521 4813 0
-1522 4813 0
-1527 4813 0
-1528 4813 0
-1533 4813 0
-1534 4813 0
-4813 1450 1542 1511 1518 1472 1504 1438 1527 1420 1503 1515 1443 1393 1444 1405 1539 1437 1528 1469 1417 1399 1480 1487 1541 1521 1479 1516 1533 1412 1519 1495 1470 1534 1494 1419 1418 1424 1414 1517 1520 1411 1397 1423 1502 1451 1484 1488 1505 1413 1483 1400 1471 1486 1447 1522 1489 1512 1540 1396 1406 0
4815 -1939 0
4815 -1942 0
-1943 4815 0
-1946 4815 0
4815 -1951 0
-1952 4815 0
4815 -1957 0
-1958 4815 0
-1959 4815 0
-1960 4815 0
-1963 4815 0
-1964 4815 0
-1965 4815 0
-1966 4815 0
-1969 4815 0
-1970 4815 0
-1983 4815 0
-1984 4815 0
-1989 4815 0
-1990 4815 0
-1993 4815 0
4815 -1996 0
-1997 4815 0
-2015 4815 0
4815 -2016 0
-2017 4815 0
-2018 4815 0
-2025 4815 0
-2026 4815 0
4815 -2029 0
-2030 4815 0
-2032 4815 0
-2033 4815 0
-2034 4815 0
-2035 4815 0
-2040 4815 0
4815 -2041 0
-2048 4815 0
-2049 4815 0
-2050 4815 0
-2051 4815 0
-2057 4815 0
-2058 4815 0
-2062 4815 0
-2064 4815 0
-2065 4815 0
4815 -2066 0
-2067 4815 0
-2068 4815 0
4815 -2073 0
-2079 4815 0
-2080 4815 0
4815 -2087 0
-2088 4815 0
-4815 1989 2029 2030 1965 2086 1983 2058 2066 2041 2035 1959 2018 2088 1939 2017 1964 1970 1963 2051 2074 1996 1997 2068 2040 1958 2073 1993 2050 1957 1945 2064 1952 2015 2049 2057 2016 2061 1969 2025 2032 2087 2034 2048 2063 2085 1990 2080 2033 2062 1951 1960 2079 1966 1942 2026 1984 2067 1943 2065 1946 0
4817 -2093 0
4817 -2100 0
4817 -2101 0
-2118 4817 0
4817 -2119 0
4817 -2120 0
4817 -2128 0
4817 -2129 0
-4817 2089 2099 2132 2092 2093 2091 2131 2120 2100 2119 2118 2130 2127 2129 2101 2128 2126 2133 2090 0
-1460 4823 0
4823 -1461 0
4823 -1463 0
-1475 4823 0
-1496 4823 0
4823 -1506 0
4823 -1508 0
-1509 4823 0
-4823 1395 1507 1473 1476 1455 1535 1475 1482 1394 1524 1529 1536 1439 1454 1416 1432 1506 1421 1490 1463 1398 1404 1409 1509 1481 1403 1431 1408 1448 1402 1461 1523 1460 1491 1464 1530 1422 1497 1445 1427 1433 1426 1401 1508 1425 1434 1446 1449 1496 1440 1458 1407 1415 1485 1428 1452 1453 1410 1459 1474 0
4825 -1940 0
-1944 4825 0
-1947 4825 0
4825 -1948 0
4825 -1949 0
4825 -1953 0
4825 -1954 0
4825 -1955 0
4825 -1956 0
-1961 4825 0
4825 -1962 0
-1967 4825 0
4825 -1968 0
4825 -1971 0
4825 -1972 0
4825 -1973 0
4825 -1977 0
-1978 4825 0
4825 -1979 0
-1980 4825 0
-1992 4825 0
4825 -1994 0
4825 -1995 0
4825 -1999 0
4825 -2004 0
4825 -2005 0
4825 -2006 0
4825 -2007 0
-2009 4825 0
4825 -2010 0
-2019 4825 0
4825 -2021 0
-2022 4825 0
4825 -2027 0
-2028 4825 0
4825 -2031 0
-2036 4825 0
-2037 4825 0
4825 -2043 0
-2052 4825 0
4825 -2053 0
4825 -2054 0
-2055 4825 0
4825 -2069 0
4825 -2070 0
-4825 1944 2043 1956 2069 1994 1941 1995 2006 1967 1940 1955 2009 2020 1953 1954 2007 1961 1949 1992 1971 2022 1977 2021 1979 2053 1962 1948 1986 1950 2028 1972 2082 2010 2042 2037 2070 2036 2054 2019 1947 1980 2005 1968 2027 1985 1991 2031 2004 2052 2001 1974 2055 2075 1999 2076 2081 1998 1973 1978 2000 0
-1394 4833 0
-1395 4833 0
-1398 4833 0
-1401 4833 0
-1402 4833 0
-1406 4833 0
-1407 4833 0
-1408 4833 0
-1412 4833 0
-1421 4833 0
-1422 4833 0
-1425 4833 0
-1426 4833 0
-1431 4833 0
-1432 4833 0
-1445 4833 0
-1446 4833 0
-1448 4833 0
-1449 4833 0
4833 -1450 0
-1451 4833 0
4833 -1452 0
-1453 4833 0
-1463 4833 0
-1464 4833 0
-1469 4833 0
4833 -1470 0
-1473 4833 0
-1474 4833 0
-1479 4833 0
-1480 4833 0
-1485 4833 0
-1486 4833 0
-1487 4833 0
-1502 4833 0
-1503 4833 0
-1506 4833 0
-1507 4833 0
-1515 4833 0
-1516 4833 0
-1524 4833 0
-1529 4833 0
-1533 4833 0
-4833 1408 1450 1529 1506 1449 1524 1470 1394 1540 1474 1452 1533 1535 1481 1520 1487 1523 1486 1405 1516 1421 1502 1469 1473 1503 1411 1479 1480 1459 1445 1402 1395 1485 1417 1431 1534 1536 1432 1464 1401 1515 1463 1458 1407 1425 1530 1412 1406 1453 1451 1426 1482 1422 1446 1398 1507 1519 1448 1418 1539 0
-1953 4835 0
-1957 4835 0
-1958 4835 0
-1968 4835 0
-1999 4835 0
-2019 4835 0
-2020 4835 0
-2033 4835 0
-2049 4835 0
-2052 4835 0
-2053 4835 0
-2061 4835 0
-2062 4835 0
-2065 4835 0
4835 -2066 0
4835 -2069 0
-2081 4835 0
-2082 4835 0
-2085 4835 0
-4835 1994 2069 1999 2004 1948 1967 1944 2066 1964 1995 1941 2032 2019 2010 1940 2070 1972 1951 1991 2086 1968 2020 1977 2027 1957 1958 2028 2016 2082 1998 2062 2031 1954 2079 2048 1997 2075 2009 1952 2049 2080 2061 1947 2053 1996 1978 2005 2015 1971 1963 1953 2081 2026 1992 2085 2052 2025 2033 2065 2076 0
-1465 4843 0
-4843 1465 1490 1439 1498 1475 1461 1410 1496 1433 1455 1510 1416 1499 1454 1491 1409 1427 1466 1462 1440 1403 1428 1509 1508 1476 1460 1404 1434 1415 1497 0
-1420 4853 0
-1423 4853 0
-1424 4853 0
-1429 4853 0
-1435 4853 0
-1436 4853 0
-1437 4853 0
-1438 4853 0
-1441 4853 0
-1442 4853 0
-1443 4853 0
-1444 4853 0
-1447 4853 0
-1456 4853 0
-1457 4853 0
-1467 4853 0
-1468 4853 0
-1478 4853 0
-1483 4853 0
-1484 4853 0
4853 -1489 0
-1493 4853 0
-1500 4853 0
-1504 4853 0
-1505 4853 0
4853 -1511 0
4853 -1512 0
4853 -1513 0
-1514 4853 0
-1525 4853 0
4853 -1528 0
-4853 1397 1472 1504 1511 1512 1438 1437 1442 1542 1484 1537 1471 1399 1527 1514 1521 1478 1396 1541 1443 1513 1467 1531 1393 1456 1435 1419 1444 1501 1517 1414 1489 1528 1518 1423 1430 1522 1500 1424 1420 1494 1477 1488 1447 1413 1526 1525 1400 1429 1492 1483 1538 1468 1441 1436 1532 1505 1493 1495 1457 0
4863 -1393 0
4863 -1397 0
-1399 4863 0
4863 -1400 0
-1404 4863 0
-1410 4863 0
-1420 4863 0
-1423 4863 0
-1424 4863 0
-1433 4863 0
-1434 4863 0
4863 -1443 0
-1444 4863 0
4863 -1447 0
4863 -1460 0
-1483 4863 0
-1484 4863 0
4863 -1490 0
4863 -1491 0
-1496 4863 0
-1497 4863 0
-1508 4863 0
-1509 4863 0
-4863 1397 1484 1472 1511 1504 1527 1438 1427 1443 1404 1424 1447 1423 1521 1444 1542 1491 1522 1528 1439 1496 1476 1460 1454 1541 1475 1517 1437 1419 1409 1495 1440 1403 1461 1508 1399 1400 1414 1512 1471 1497 1509 1428 1393 1434 1410 1505 1488 1413 1455 1415 1490 1494 1396 1489 1416 1518 1433 1483 1420 0
4865 -1942 0
-1949 4865 0
4865 -1950 0
-1961 4865 0
4865 -1962 0
-1965 4865 0
-1966 4865 0
-1969 4865 0
-1970 4865 0
-1973 4865 0
-1974 4865 0
-1979 4865 0
-1980 4865 0
-1983 4865 0
-1984 4865 0
-1985 4865 0
-1986 4865 0
-1989 4865 0
-1990 4865 0
-1993 4865 0
-2000 4865 0
-2001 4865 0
4865 -2006 0
-2007 4865 0
-2017 4865 0
-2018 4865 0
4865 -2021 0
-2022 4865 0
4865 -2029 0
4865 -2030 0
-2034 4865 0
-2035 4865 0
-2036 4865 0
-2037 4865 0
4865 -2041 0
-2042 4865 0
4865 -2043 0
-2050 4865 0
-2051 4865 0
-2054 4865 0
-2055 4865 0
-2057 4865 0
-2058 4865 0
4865 -2063 0
-2064 4865 0
-2074 4865 0
-4865 2029 1942 1983 2043 1955 2088 1993 2006 1989 1986 2035 1950 1956 1962 1970 2017 2041 1969 1966 2074 2030 1979 2057 1965 2007 2036 1945 1939 2022 2068 2040 2051 2034 1959 2000 2001 2042 2054 1973 1949 2063 2073 1984 2050 1980 2064 2058 2067 2018 2021 2037 1960 1961 1946 1990 1985 1974 2055 2087 1943 0
4875 -1941 0
-1947 4875 0
4875 -1948 0
-1953 4875 0
4875 -1954 0
-1967 4875 0
4875 -1968 0
-1971 4875 0
-1972 4875 0
-1975 4875 0
-1976 4875 0
4875 -1977 0
-1978 4875 0
-1981 4875 0
-1982 4875 0
-1987 4875 0
-1988 4875 0
-1991 4875 0
-1992 4875 0
-1994 4875 0
-1995 4875 0
4875 -1998 0
-1999 4875 0
-2002 4875 0
-2003 4875 0
-2004 4875 0
-2005 4875 0
-2009 4875 0
-2013 4875 0
-2014 4875 0
-2019 4875 0
-2023 4875 0
-2024 4875 0
-2027 4875 0
-2028 4875 0
-2031 4875 0
4875 -2038 0
-2039 4875 0
-2046 4875 0
-2047 4875 0
-2052 4875 0
4875 -2053 0
-2059 4875 0
4875 -2069 0
-2070 4875 0
-2071 4875 0
-2072 4875 0
-2075 4875 0
-2076 4875 0
-2077 4875 0
-2078 4875 0
-2081 4875 0
-2082 4875 0
-2084 4875 0
-4875 2069 2038 2047 1994 1948 1998 2060 2084 2072 1940 1941 2003 2020 2004 2024 1992 2083 2014 1982 2059 2039 1991 2070 2027 1953 1978 2013 1971 2009 2002 1981 1977 1972 2010 1954 1995 2075 1987 2005 1968 1967 2082 2028 2077 1976 2052 1999 2046 2078 1944 1975 2071 2031 2081 2019 1947 2076 1988 2023 2053 0
-613 4879 0
-614 4879 0
-619 4879 0
-652 4879 0
-653 4879 0
4879 -667 0
4879 -671 0
4879 -672 0
-705 4879 0
-712 4879 0
4879 -721 0
-722 4879 0
-741 4879 0
-742 4879 0
-758 4881 0
-763 4881 0
-764 4881 0
-769 4881 0
-802 4881 0
-803 4881 0
-814 4881 0
-817 4881 0
-818 4881 0
-821 4881 0
-822 4881 0
-832 4881 0
-850 4881 0
-862 4881 0
-871 4881 0
-872 4881 0
-885 4881 0
-886 4881 0
-891 4881 0
-892 4881 0
-1503 4883 0
-1510 4883 0
-4883 1450 1498 1510 1486 1412 1406 1465 1418 1516 1411 1540 1519 1469 1533 1466 1405 1480 1520 1479 1534 1515 1470 1487 1502 1539 1417 1503 1499 1451 1462 0
-1957 4885 0
-1958 4885 0
-1996 4885 0
-1997 4885 0
-2011 4885 0
-2012 4885 0
-2016 4885 0
-2032 4885 0
-2033 4885 0
-2044 4885 0
-2056 4885 0
-2065 4885 0
-2066 4885 0
-2086 4885 0
-4885 1958 1952 2015 2011 2061 2086 2044 1996 2062 2012 2049 1997 1964 2080 2033 2048 2066 2032 1951 2008 1963 2085 2065 2016 2025 2045 2056 2079 1957 2026 0
-2090 4887 0
-2092 4887 0
-2100 4887 0
-2107 4887 0
-2118 4887 0
-2121 4887 0
-2127 4887 0
-4887 2129 2127 2118 2107 2100 2121 2090 2092 0
-4887 -4879 0
-4881 -4887 0
-4885 -4887 0
-237 4891 0
-239 4891 0
-243 4891 0
-249 4891 0
-264 4891 0
-266 4891 0
-269 4891 0
-275 4891 0
-277 4891 0
-279 4891 0
-285 4891 0
-287 4891 0
-300 4891 0
-302 4891 0
-308 4891 0
-310 4891 0
-312 4891 0
-317 4891 0
-321 4891 0
-323 4891 0
-339 4891 0
-341 4891 0
-345 4891 0
-347 4891 0
-633 4893 0
-635 4893 0
-641 4893 0
-645 4893 0
-647 4893 0
-662 4893 0
-665 4893 0
4893 -671 0
4893 -673 0
-675 4893 0
-677 4893 0
-681 4893 0
-683 4893 0
-696 4893 0
-708 4893 0
4893 -710 0
-713 4893 0
4893 -717 0
-731 4893 0
4893 -737 0
-741 4893 0
-743 4893 0
-1233 4895 0
-1235 4895 0
-1239 4895 0
-1241 4895 0
-1245 4895 0
-1247 4895 0
-1265 4895 0
-1273 4895 0
-1275 4895 0
-1308 4895 0
-1337 4895 0
-1471 4897 0
-1473 4897 0
-1481 4897 0
-4891 -4893 0
-4895 -4891 0
-4897 -4891 0
-1396 4907 0
-1398 4907 0
-1401 4907 0
4907 -1403 0
-1407 4907 0
-1409 4907 0
-1411 4907 0
-1413 4907 0
4907 -1415 0
-1416 4907 0
-1417 4907 0
-1419 4907 0
-1421 4907 0
-1422 4907 0
-1425 4907 0
-1427 4907 0
-1435 4907 0
-1440 4907 0
-1441 4907 0
-1446 4907 0
-1448 4907 0
4907 -1452 0
-1454 4907 0
-1465 4907 0
-1467 4907 0
-1474 4907 0
-1476 4907 0
-1477 4907 0
-1482 4907 0
-1483 4907 0
4907 -1485 0
-1486 4907 0
-1490 4907 0
-1491 4907 0
-1492 4907 0
-1497 4907 0
-1498 4907 0
-1500 4907 0
-1507 4907 0
-1509 4907 0
4907 -1512 0
4907 -1513 0
-1514 4907 0
-1521 4907 0
-1523 4907 0
-1524 4907 0
-1530 4907 0
4907 -1531 0
-1536 4907 0
-4907 1398 1542 1498 1507 1500 1465 1492 1510 1531 1407 1521 1476 1540 1409 1441 1415 1536 1403 1416 1421 1516 1422 1524 1482 1485 1401 1490 1446 1394 1513 1477 1523 1509 1519 1512 1491 1483 1530 1448 1454 1452 1486 1427 1413 1467 1419 1425 1518 1488 1396 1474 1411 1497 1435 1514 1525 1417 1537 1538 1440 0
4909 -1 0
-214 4911 0
-234 4911 0
4911 -257 0
-259 4911 0
-272 4911 0
-651 4913 0
-652 4913 0
4913 -657 0
-659 4913 0
-663 4913 0
-664 4913 0
-666 4913 0
4913 -672 0
-689 4913 0
-703 4913 0
-1197 4915 0
-1244 4915 0
-1251 4915 0
-1266 4915 0
-1268 4915 0
-1301 4915 0
-1322 4915 0
-1328 4915 0
-1393 4917 0
-1395 4917 0
-1402 4917 0
-1404 4917 0
-1406 4917 0
-1408 4917 0
-1429 4917 0
4917 -1434 0
-1447 4917 0
4917 -1455 0
-1456 4917 0
-1457 4917 0
-1462 4917 0
-1466 4917 0
-1472 4917 0
-1478 4917 0
-1484 4917 0
-1493 4917 0
-1495 4917 0
-1499 4917 0
-1501 4917 0
-1503 4917 0
-1505 4917 0
-1520 4917 0
-1522 4917 0
-1526 4917 0
-4917 1426 1395 1447 1528 1397 1466 1450 1455 1470 1534 1404 1501 1405 1472 1489 1449 1442 1468 1402 1423 1480 1393 1438 1428 1408 1434 1493 1522 1414 1495 1461 1436 1478 1399 1532 1459 1432 1400 1418 1520 1457 1526 1462 1487 1503 1444 1429 1484 1424 1464 1420 1410 1456 1430 1406 1453 1412 1451 1505 1499 0
-4911 -4909 -4913 0
-4915 -4911 -4909 0
-4917 -4911 -4909 0
-4915 -4909 -4913 0
4919 -1 0
4921 -234 0
4921 -296 0
4921 -315 0
-658 4923 0
-678 4923 0
-702 4923 0
4923 -707 0
-1197 4925 0
4927 -1450 0
4927 -1455 0
4927 -1461 0
-1462 4927 0
-1466 4927 0
-1480 4927 0
-1484 4927 0
-1488 4927 0
-1522 4927 0
4927 -1528 0
-1534 4927 0
-4927 1397 1488 1537 1464 1393 1466 1447 1523 1476 1452 1461 1528 1442 1477 1409 1420 1421 1405 1456 1444 1505 1480 1542 1399 1534 1536 1500 1478 1509 1522 1429 1526 1450 1404 1490 1521 1531 1449 1434 1419 1410 1413 1454 1467 1395 1462 1407 1428 1518 1482 1520 1513 1415 1455 1472 1532 1499 1484 1423 1418 0
-4921 -4919 -4923 0
-4925 -4921 -4919 0
-214 4931 0
-218 4931 0
-257 4931 0
-259 4931 0
-265 4931 0
-269 4931 0
-276 4931 0
-277 4931 0
-279 4931 0
-293 4931 0
-295 4931 0
-310 4931 0
-312 4931 0
-317 4931 0
-4931 206 312 244 263 257 279 218 293 238 301 259 277 212 276 265 236 220 269 230 214 242 295 208 307 317 232 310 299 274 309 0
-602 4933 0
-604 4933 0
-608 4933 0
-610 4933 0
-614 4933 0
-626 4933 0
-628 4933 0
-634 4933 0
-638 4933 0
-640 4933 0
-655 4933 0
-661 4933 0
-665 4933 0
4933 -670 0
4933 -672 0
4933 -673 0
-675 4933 0
-697 4933 0
-703 4933 0
-705 4933 0
-708 4933 0
-713 4933 0
-1202 4935 0
-1204 4935 0
-1208 4935 0
-1210 4935 0
-1214 4935 0
-1216 4935 0
-1228 4935 0
-1234 4935 0
-1238 4935 0
-1240 4935 0
-1259 4935 0
-1270 4935 0
-1273 4935 0
-1313 4935 0
-1406 4937 0
-1408 4937 0
-1424 4937 0
-1451 4937 0
-1453 4937 0
-1487 4937 0
-1489 4937 0
-1501 4937 0
-1504 4937 0
-1506 4937 0
-1511 4937 0
-4937 1432 1511 1463 1504 1470 1495 1489 1436 1412 1400 1501 1457 1453 1426 1506 1402 1406 1473 1459 1430 1468 1493 1451 1424 1414 1487 1438 1503 1471 1408 0
-4931 -4933 0
-4935 -4931 0
-4937 -4931 0
-4941 223 318 271 297 313 287 308 325 302 291 346 280 239 241 231 245 222 247 298 217 252 254 264 266 249 251 275 281 285 347 228 292 289 243 300 246 303 237 200 233 314 209 304 316 320 322 321 207 204 323 331 341 336 339 202 335 344 345 333 330 0
-1401 4947 0
4947 -1403 0
-1411 4947 0
-1417 4947 0
-1422 4947 0
-1435 4947 0
-1437 4947 0
-1441 4947 0
-1443 4947 0
-1458 4947 0
-1460 4947 0
-1469 4947 0
-1474 4947 0
-1475 4947 0
-1479 4947 0
-1481 4947 0
-1483 4947 0
-1485 4947 0
-1486 4947 0
4947 -1491 0
-1492 4947 0
-1494 4947 0
-1496 4947 0
-1497 4947 0
-1498 4947 0
-1507 4947 0
-1508 4947 0
-1510 4947 0
-1512 4947 0
-1514 4947 0
4947 -1515 0
-1516 4947 0
-1517 4947 0
-1527 4947 0
-1529 4947 0
-1530 4947 0
-4947 1398 1446 1498 1539 1502 1527 1507 1433 1541 1411 1529 1465 1427 1516 1475 1439 1533 1524 1515 1510 1396 1422 1443 1401 1496 1460 1519 1394 1535 1440 1525 1448 1492 1494 1514 1425 1479 1512 1403 1530 1486 1508 1437 1474 1431 1497 1481 1517 1485 1416 1417 1441 1445 1491 1469 1458 1538 1435 1540 1483 0
4951 -257 0
4955 -1196 0
4957 -1394 0
-1408 4957 0
-1425 4957 0
-1435 4957 0
-1441 4957 0
-1483 4957 0
-1486 4957 0
-1487 4957 0
-1501 4957 0
-1503 4957 0
-4957 1398 1485 1498 1507 1510 1516 1540 1446 1411 1503 1470 1489 1519 1468 1495 1487 1465 1427 1441 1422 1501 1403 1412 1400 1457 1493 1430 1414 1514 1425 1394 1492 1491 1525 1402 1438 1440 1426 1524 1416 1497 1512 1474 1453 1424 1483 1432 1486 1451 1436 1530 1401 1406 1417 1435 1459 1448 1408 1396 1538 0
-4957 -4955 -4951 0
4959 -1 0
-275 4961 0
-285 4961 0
4961 -302 0
4961 -341 0
-649 4963 0
-652 4963 0
4963 -657 0
-664 4963 0
4963 -686 0
-1197 4965 0
-1206 4965 0
-1230 4965 0
-1244 4965 0
-1251 4965 0
-1266 4965 0
-1268 4965 0
-1301 4965 0
-1322 4965 0
-1328 4965 0
-1395 4967 0
-1397 4967 0
-1404 4967 0
-1405 4967 0
-1418 4967 0
-1420 4967 0
-1423 4967 0
-1431 4967 0
-1433 4967 0
-1437 4967 0
-1439 4967 0
-1443 4967 0
-1444 4967 0
-1445 4967 0
-1447 4967 0
-1449 4967 0
4967 -1450 0
-1455 4967 0
-1456 4967 0
-1460 4967 0
4967 -1461 0
-1462 4967 0
-1464 4967 0
-1466 4967 0
-1469 4967 0
-1472 4967 0
-1475 4967 0
-1478 4967 0
-1479 4967 0
-1480 4967 0
-1484 4967 0
-1494 4967 0
-1496 4967 0
-1499 4967 0
-1502 4967 0
-1505 4967 0
-1515 4967 0
-1520 4967 0
-1522 4967 0
-1528 4967 0
-1534 4967 0
-4967 1395 1447 1393 1472 1399 1484 1526 1397 1541 1437 1418 1466 1445 1444 1529 1461 1450 1533 1469 1456 1517 1431 1520 1527 1528 1455 1496 1478 1442 1410 1479 1481 1522 1460 1475 1539 1458 1423 1434 1535 1480 1428 1502 1433 1494 1449 1439 1443 1405 1429 1534 1515 1420 1505 1532 1462 1499 1404 1464 1508 0
-4961 -4959 -4963 0
-4965 -4961 -4959 0
-4967 -4961 -4959 0
-4967 -4965 -4959 0
-27 4969 0
-219 4971 0
-221 4971 0
-258 4971 0
-269 4971 0
-277 4971 0
-282 4971 0
-283 4971 0
-288 4971 0
-294 4971 0
-296 4971 0
-306 4971 0
-310 4971 0
-312 4971 0
-319 4971 0
-324 4971 0
-329 4971 0
-337 4971 0
-342 4971 0
-343 4971 0
-4971 213 225 219 288 312 317 260 279 258 294 221 283 343 329 296 324 348 227 269 277 319 215 337 273 306 327 315 342 310 282 0
-615 4973 0
-617 4973 0
-621 4973 0
-669 4973 0
4973 -673 0
-678 4973 0
-684 4973 0
-690 4973 0
-692 4973 0
4973 -706 0
-708 4973 0
-711 4973 0
4973 -715 0
-720 4973 0
-723 4973 0
4973 -725 0
-739 4973 0
-744 4973 0
-1323 4975 0
-1325 4975 0
-1333 4975 0
-1338 4975 0
-1339 4975 0
-1344 4975 0
-4969 -4971 0
-4969 -4973 0
-4971 -4973 0
-4971 -4975 0
-569 4979 0
-570 4979 0
-572 4979 0
4979 -587 0
4979 -589 0
-591 4979 0
-783 4981 0
-785 4981 0
-789 4981 0
-791 4981 0
-795 4981 0
-797 4981 0
-810 4981 0
-812 4981 0
-815 4981 0
-823 4981 0
-825 4981 0
-827 4981 0
-831 4981 0
-833 4981 0
-846 4981 0
-848 4981 0
-854 4981 0
-856 4981 0
-858 4981 0
-860 4981 0
-863 4981 0
-867 4981 0
-869 4981 0
-879 4981 0
-881 4981 0
-887 4981 0
-893 4981 0
-933 4983 0
-935 4983 0
-939 4983 0
-941 4983 0
-945 4983 0
-947 4983 0
-960 4983 0
-962 4983 0
-965 4983 0
-971 4983 0
-973 4983 0
-977 4983 0
-981 4983 0
-983 4983 0
-998 4983 0
-1008 4983 0
-1010 4983 0
-1013 4983 0
-1017 4983 0
-1019 4983 0
-1031 4983 0
-1035 4983 0
-1037 4983 0
-1041 4983 0
-1043 4983 0
-1977 4985 0
-1979 4985 0
-1983 4985 0
-1985 4985 0
-1989 4985 0
-1991 4985 0
-2004 4985 0
-2006 4985 0
-2009 4985 0
-2015 4985 0
-2017 4985 0
-2021 4985 0
-2027 4985 0
-2042 4985 0
-2052 4985 0
-2054 4985 0
-2063 4985 0
-2075 4985 0
-2081 4985 0
-2085 4985 0
-2087 4985 0
-4985 1989 1985 2040 2057 2025 2015 2079 2048 2050 2081 1977 2004 2063 2075 2087 2052 2061 2019 2073 2042 2017 2009 1979 2054 2021 2006 1991 2085 1983 2027 0
-2110 4987 0
-2111 4987 0
-2114 4987 0
-2126 4987 0
-2127 4987 0
-2128 4987 0
-4983 -4979 0
-4985 -4979 0
-4987 -4979 0
-4981 -4987 0
-4987 -4983 0
-4985 -4987 0
4995 -1953 0
-4995 1994 2043 2084 2069 2077 1942 2088 2060 2034 2083 2038 2036 2064 1963 2058 2020 1992 2067 2022 1953 2082 1940 1998 2056 1947 2023 1971 2070 2046 1981 1949 1957 2000 2037 2071 2065 1944 2055 2076 1986 2029 1973 2013 2086 2053 2011 1987 1961 2059 2062 1965 1967 1955 2044 1962 2031 2028 2032 1968 1959 0
4999 -548 0
5003 -951 0
5005 -1956 0
-5005 1993 1976 2008 1972 2051 2066 2001 2072 1960 1997 1990 1966 2030 1996 1950 1943 2033 1964 2074 1954 2016 2045 1984 2018 1956 2024 1939 1974 2007 1980 2026 1958 1945 2010 2002 1948 2012 2047 1978 1988 1970 2035 2005 2049 1975 1952 1946 1951 1941 1995 2003 2078 2014 2041 1999 1969 1982 2068 2039 2080 0
-2101 5007 0
-2131 5007 0
5007 -2132 0
-4999 -5003 -5007 0
5009 -547 0
5009 -548 0
-556 5009 0
-559 5009 0
-564 5009 0
5009 -567 0
-578 5009 0
-586 5009 0
-775 5011 0
-780 5011 0
-878 5011 0
-884 5011 0
5013 -915 0
5013 -951 0
5015 -1939 0
-1941 5015 0
-1943 5015 0
5015 -1945 0
5015 -1950 0
5015 -1951 0
-1953 5015 0
-1956 5015 0
-1959 5015 0
-1961 5015 0
-1964 5015 0
-1965 5015 0
-1966 5015 0
-1969 5015 0
-1975 5015 0
-1980 5015 0
-1988 5015 0
-1993 5015 0
-1996 5015 0
-2000 5015 0
-2001 5015 0
-2002 5015 0
-2007 5015 0
-2008 5015 0
-2010 5015 0
-2012 5015 0
-2013 5015 0
-2018 5015 0
-2023 5015 0
-2024 5015 0
-2026 5015 0
5015 -2030 0
-2034 5015 0
-2046 5015 0
-2051 5015 0
-2059 5015 0
-2066 5015 0
-2067 5015 0
-2068 5015 0
5015 -2069 0
-2072 5015 0
-2078 5015 0
-5015 2077 2051 2083 2088 2059 2069 2024 2046 1996 1950 1943 1959 1993 1945 2013 2034 2066 2030 1975 2022 1988 2026 2010 2078 2001 1998 2067 1941 2023 2008 2072 2012 2036 1956 1974 2018 2007 1969 1966 1967 2064 1961 1965 1995 1953 1951 2055 2045 1990 2028 2000 2074 2082 2002 1964 2080 1939 1955 1980 2068 0
5017 -2089 0
-2095 5017 0
-2103 5017 0
-2107 5017 0
-2109 5017 0
-2116 5017 0
-2117 5017 0
-5017 2095 2099 2093 2132 2106 2089 2103 2117 2100 2097 2124 2092 2116 2109 2119 2133 2122 2107 2101 0
-5011 -5013 -5009 0
-5013 -5009 -5015 0
-5017 -5013 -5009 0
-549 5019 0
-551 5019 0
5019 -558 0
-561 5019 0
5019 -563 0
-577 5019 0
5019 -589 0
-5019 549 589 561 558 563 577 551 572 0
-776 5021 0
-782 5021 0
-788 5021 0
-790 5021 0
-805 5021 0
-908 5023 0
-938 5023 0
-995 5023 0
-1003 5023 0
-1946 5025 0
-1948 5025 0
-1954 5025 0
-1958 5025 0
-1960 5025 0
-1970 5025 0
-1972 5025 0
-1976 5025 0
-1982 5025 0
-1984 5025 0
-2003 5025 0
-2005 5025 0
-2014 5025 0
-2016 5025 0
-2033 5025 0
-2035 5025 0
-2039 5025 0
-2041 5025 0
-2047 5025 0
-2049 5025 0
-5025 1960 2052 1946 1952 2049 2047 2057 1948 2016 2033 1954 2019 2005 2039 2009 1982 2041 2035 1999 1976 1978 1970 1984 2003 1997 2050 1972 1958 2014 2017 0
-2090 5027 0
-2091 5027 0
-2105 5027 0
-2108 5027 0
-2115 5027 0
-2131 5027 0
-5021 -5019 0
-5023 -5019 0
-5025 -5019 0
-5027 -5019 0
-552 5029 0
5029 -553 0
-573 5029 0
-574 5029 0
5029 -579 0
-580 5029 0
-581 5029 0
5029 -582 0
5029 -583 0
5029 -592 0
-835 5031 0
-843 5031 0
-844 5031 0
-849 5031 0
-864 5031 0
-866 5031 0
-890 5031 0
5033 -896 0
5033 -903 0
5033 -913 0
5033 -919 0
5035 -2006 0
-5035 1994 2079 2043 1983 1944 2040 2060 1989 2038 2006 2087 1942 1949 2081 1979 2029 1986 1991 2086 2048 2021 1973 2085 2075 2084 1940 1987 2053 2073 2004 2056 2011 2031 1971 1947 2042 1981 1957 2037 2032 2020 2054 1968 2058 2062 2063 2061 1985 2065 2044 2070 1992 1963 2071 1962 1977 2025 2076 2027 2015 0
5037 -2127 0
-5037 -5029 -5033 0
-5031 -5037 -5033 0
-5039 573 558 574 582 585 549 551 552 579 583 592 580 593 561 553 581 554 563 577 0
-5040 0
-5041 746 850 753 820 752 755 750 811 760 768 847 764 763 838 774 754 777 778 779 782 784 787 809 790 792 793 798 748 758 776 788 766 800 803 822 826 769 837 866 839 841 843 844 845 835 849 805 817 853 855 862 864 859 868 871 876 877 882 890 892 0
-5042 0
-5043 900 905 1000 1012 1009 908 904 913 1014 919 927 896 926 916 918 988 902 903 929 993 914 937 924 934 932 943 948 910 942 938 989 961 898 940 972 985 994 950 1016 955 970 991 1040 928 997 1018 995 953 1005 1003 959 976 999 967 1021 987 1027 1032 1026 1042 0
-5044 0
-5046 0
-5047 2098 2096 2131 2118 2121 2134 2094 2091 2135 2104 2115 2105 2125 2090 2123 2108 2102 2120 2136 0
-5048 0
5039 5041 5043 5047 5040 5044 5046 5042 5048 0
5049 -548 0
5053 -951 0
-2113 5057 0
-2114 5057 0
-5057 -5049 -5053 0
-575 5059 0
5059 -589 0
-594 5059 0
-765 5061 0
-771 5061 0
-858 5061 0
-875 5061 0
-883 5061 0
-888 5061 0
-889 5061 0
-909 5063 0
-911 5063 0
-915 5063 0
-917 5063 0
-921 5063 0
-954 5063 0
-956 5063 0
-965 5063 0
-969 5063 0
-973 5063 0
-978 5063 0
-979 5063 0
-990 5063 0
-1002 5063 0
-1006 5063 0
-1023 5063 0
-1033 5063 0
-1953 5065 0
-1955 5065 0
-1959 5065 0
-1965 5065 0
-1967 5065 0
-1998 5065 0
-2009 5065 0
-2013 5065 0
-2017 5065 0
-2019 5065 0
-2022 5065 0
-2023 5065 0
-2028 5065 0
-2034 5065 0
-2036 5065 0
-2046 5065 0
-2050 5065 0
-2055 5065 0
-2067 5065 0
-2069 5065 0
-2077 5065 0
-2082 5065 0
-2083 5065 0
-2088 5065 0
-5065 1959 1955 1998 2064 2088 2023 2069 2036 2019 2013 2052 2083 2022 2034 2059 1961 2050 2067 2082 2028 2055 2046 1965 1967 1953 2009 2057 2017 2077 2000 0
-2095 5067 0
-2103 5067 0
-2112 5067 0
-2119 5067 0
-2124 5067 0
-2126 5067 0
-5067 2124 2112 2119 2103 2126 2097 2095 2122 0
-5063 -5059 0
-5065 -5059 0
-5067 -5059 0
-5061 -5063 0
-5063 -5065 0
-5067 -5065 0
-1395 5085 0
-1397 5085 0
-1398 5085 0
-1402 5085 0
-1404 5085 0
-1408 5085 0
-1410 5085 0
-1412 5085 0
-1414 5085 0
-1415 5085 0
-1416 5085 0
-1418 5085 0
-1420 5085 0
-1421 5085 0
-1422 5085 0
-1426 5085 0
-1428 5085 0
-1436 5085 0
-1439 5085 0
-1442 5085 0
-1445 5085 0
-1449 5085 0
-1453 5085 0
-1455 5085 0
-1475 5085 0
-1478 5085 0
-1484 5085 0
-1485 5085 0
-1487 5085 0
-1489 5085 0
-1490 5085 0
-1491 5085 0
-1499 5085 0
-1501 5085 0
-1510 5085 0
-1523 5085 0
-1537 5085 0
5085 -1541 0
-5085 1408 1449 1398 1475 1529 1468 1421 1493 1506 1535 1418 1541 1499 1496 1404 1466 1523 1428 1514 1455 1484 1489 1420 1490 1501 1511 1422 1513 1539 1485 1510 1436 1524 1416 1520 1522 1473 1538 1515 1453 1532 1517 1445 1395 1426 1487 1402 1442 1410 1478 1481 1491 1439 1412 1397 1508 1415 1537 1526 1414 0
5097 -1952 0
-1953 5097 0
-1969 5097 0
-1971 5097 0
-1975 5097 0
-1981 5097 0
-1989 5097 0
5097 -1993 0
-1996 5097 0
-1998 5097 0
-2000 5097 0
5097 -2004 0
5097 -2009 0
-2011 5097 0
5097 -2023 0
5097 -2029 0
-2032 5097 0
-5097 1989 1942 1994 2025 2038 2040 2009 1949 1997 2015 2004 2013 2050 2079 2002 1993 1939 1955 2006 1996 1965 2032 2065 1940 1963 1951 1952 2029 1957 1953 2011 1977 2000 2048 1976 2067 1946 2077 2017 2023 1987 2071 2008 1981 2034 1945 2073 2003 1998 1971 2044 1973 1983 1969 1970 2046 1975 1947 1959 1979 0
5099 -1 0
5103 -1196 0
-1396 5105 0
-1400 5105 0
-1406 5105 0
-1408 5105 0
-1414 5105 0
-1416 5105 0
-1419 5105 0
-1422 5105 0
-1424 5105 0
-1430 5105 0
-1433 5105 0
-1441 5105 0
-1447 5105 0
-1448 5105 0
-1451 5105 0
-1454 5105 0
-1455 5105 0
-1457 5105 0
-1460 5105 0
-1462 5105 0
-1463 5105 0
-1465 5105 0
-1468 5105 0
-1471 5105 0
-1475 5105 0
-1477 5105 0
-1478 5105 0
-1483 5105 0
5105 -1489 0
-1491 5105 0
-1498 5105 0
-1501 5105 0
-1504 5105 0
-1508 5105 0
-1514 5105 0
-1521 5105 0
-1522 5105 0
-1524 5105 0
-1527 5105 0
5105 -1531 0
5105 -1535 0
-5105 1463 1498 1468 1481 1471 1408 1475 1394 1541 1430 1427 1533 1535 1454 1519 1455 1443 1403 1417 1489 1457 1479 1419 1483 1453 1420 1491 1409 1460 1531 1478 1422 1424 1406 1514 1527 1524 1400 1447 1416 1465 1521 1433 1441 1477 1448 1522 1396 1504 1451 1508 1393 1525 1410 1414 1532 1501 1462 1538 1517 0
-1960 5107 0
-1997 5107 0
-2011 5107 0
-2025 5107 0
-2065 5107 0
-2067 5107 0
-2068 5107 0
-5107 1942 1939 2068 2008 1994 2025 2047 2050 2027 2011 1955 1960 2081 2009 2078 1940 1989 1993 2001 2017 1968 1962 2060 2014 1966 1956 1976 2063 2087 2044 2067 1987 1999 2003 2000 2021 2023 1963 1979 2006 1970 1946 2029 2073 2054 2024 2070 1949 1997 1973 2079 2071 2035 2084 1965 2065 2077 2037 1952 1954 0
-5105 -5103 -5099 0
-1398 5125 0
-1402 5125 0
-1404 5125 0
5125 -1415 0
-1418 5125 0
-1426 5125 0
-1432 5125 0
-1436 5125 0
-1438 5125 0
-1439 5125 0
-1445 5125 0
-1446 5125 0
-1449 5125 0
5125 -1461 0
-1466 5125 0
5125 -1470 0
-1473 5125 0
-1476 5125 0
-1484 5125 0
-1487 5125 0
-1490 5125 0
-1493 5125 0
-1495 5125 0
-1496 5125 0
-1499 5125 0
-1506 5125 0
-1509 5125 0
-1511 5125 0
-1520 5125 0
-1529 5125 0
-1530 5125 0
5125 -1539 0
-5125 1449 1510 1398 1506 1482 1497 1470 1523 1503 1540 1432 1526 1466 1536 1511 1438 1487 1528 1415 1520 1480 1529 1473 1515 1530 1395 1485 1461 1439 1496 1534 1509 1490 1542 1518 1397 1513 1445 1402 1493 1434 1444 1537 1436 1476 1421 1440 1459 1426 1495 1428 1446 1484 1418 1499 1412 1516 1404 1539 1442 0
5127 -1943 0
-1944 5127 0
5127 -1948 0
-1958 5127 0
-1961 5127 0
-1967 5127 0
-1972 5127 0
-1974 5127 0
-1978 5127 0
-1980 5127 0
-1984 5127 0
-1985 5127 0
-1986 5127 0
-1990 5127 0
-1991 5127 0
-1992 5127 0
-1995 5127 0
-2005 5127 0
-2016 5127 0
-2019 5127 0
-2028 5127 0
-2031 5127 0
-2033 5127 0
-2036 5127 0
-2039 5127 0
5127 -2041 0
-2042 5127 0
5127 -2043 0
-2045 5127 0
-2049 5127 0
-2052 5127 0
-2055 5127 0
-2056 5127 0
-2057 5127 0
-2059 5127 0
-2061 5127 0
-2062 5127 0
5127 -2069 0
-2072 5127 0
-2075 5127 0
-2076 5127 0
-2080 5127 0
-2082 5127 0
-5127 1944 2043 2069 2086 2031 2083 2072 2066 1950 2076 2088 2049 1967 1941 2036 2022 1985 1988 2026 2075 2059 2019 2074 2033 2030 2080 1986 2005 2012 1982 2045 2042 1972 2016 2007 2039 1980 2082 1984 1991 2057 1992 2041 2061 1948 1943 1974 2085 2064 1961 2052 2062 2028 2055 1958 2056 1964 1990 1978 1995 0
5135 -1395 0
-5135 1412 1395 1488 1506 1510 1473 1502 1404 1426 1466 1407 1405 1484 1437 1539 1499 1537 1487 1529 1469 1399 1513 1467 1523 1401 1500 1492 1435 1456 1511 1486 1411 1397 1402 1423 1413 1526 1445 1429 1439 1398 1496 1421 1494 1515 1458 1493 1490 1520 1442 1452 1415 1428 1436 1449 1485 1431 1418 1425 1450 0
-1424 5145 0
-1447 5145 0
-1451 5145 0
-1457 5145 0
-1460 5145 0
5145 -1471 0
-1479 5145 0
-1480 5145 0
-1504 5145 0
-1527 5145 0
-1533 5145 0
-1534 5145 0
-5145 1463 1483 1424 1447 1441 1470 1479 1432 1531 1482 1498 1504 1503 1443 1542 1409 1518 1457 1516 1533 1444 1476 1528 1460 1497 1461 1465 1459 1540 1454 1406 1534 1495 1525 1527 1519 1509 1419 1480 1440 1438 1451 1446 1400 1403 1393 1471 1433 1521 1396 1434 1427 1417 1530 1394 1430 1462 1448 1536 1477 0
-238 5159 0
-240 5159 0
-244 5159 0
-246 5159 0
-250 5159 0
-252 5159 0
-265 5159 0
-270 5159 0
-276 5159 0
5159 -278 0
-280 5159 0
-282 5159 0
-286 5159 0
-301 5159 0
-303 5159 0
-309 5159 0
-311 5159 0
-313 5159 0
-315 5159 0
-318 5159 0
-322 5159 0
-324 5159 0
-334 5159 0
-336 5159 0
-340 5159 0
-342 5159 0
-346 5159 0
-5159 267 313 318 278 334 346 280 244 340 301 265 311 276 286 324 348 322 238 240 282 288 342 252 309 246 315 336 303 270 250 0
-565 5161 0
-566 5161 0
-567 5161 0
-573 5161 0
-574 5161 0
-575 5161 0
-592 5161 0
-593 5161 0
-594 5161 0
-634 5163 0
-636 5163 0
-640 5163 0
-642 5163 0
-648 5163 0
-661 5163 0
-663 5163 0
-672 5163 0
-676 5163 0
-678 5163 0
-682 5163 0
-684 5163 0
-697 5163 0
-699 5163 0
-705 5163 0
-707 5163 0
-711 5163 0
-714 5163 0
-718 5163 0
-720 5163 0
-730 5163 0
-732 5163 0
-736 5163 0
-738 5163 0
-742 5163 0
-744 5163 0
-934 5165 0
-940 5165 0
-966 5165 0
-974 5165 0
-1009 5165 0
-1014 5165 0
-2115 5167 0
-2116 5167 0
-2117 5167 0
-2131 5167 0
-2132 5167 0
-2133 5167 0
-2134 5167 0
-2135 5167 0
-2136 5167 0
-5167 2135 2115 2132 2131 2136 2117 2134 2116 2133 0
-5161 -5159 0
-5163 -5159 0
-5167 -5159 0
-5161 -5163 0
-5161 -5167 0
-5165 -5163 0
-5167 -5163 0
-5165 -5167 0
5171 -548 0
-701 5173 0
-708 5173 0
-712 5173 0
5175 -951 0
-5175 -5173 -5171 0
-202 5179 0
-217 5179 0
-230 5179 0
-231 5179 0
-233 5179 0
-241 5179 0
-257 5179 0
-258 5179 0
-260 5179 0
-273 5179 0
-283 5179 0
-289 5179 0
-294 5179 0
-300 5179 0
-304 5179 0
-306 5179 0
-308 5179 0
-310 5179 0
-325 5179 0
-327 5179 0
-331 5179 0
-333 5179 0
-5179 229 236 271 285 200 333 253 294 205 260 325 289 212 275 223 339 249 243 268 300 337 264 230 235 199 257 217 298 306 304 258 241 237 256 239 262 277 219 231 327 215 310 263 283 254 273 292 266 247 269 213 207 331 233 308 211 202 209 225 206 0
-5180 0
-5181 0
-5182 0
-625 5183 0
-626 5183 0
-629 5183 0
-639 5183 0
-671 5183 0
-681 5183 0
-5183 685 665 671 673 723 735 626 704 609 615 706 607 611 645 633 603 629 653 639 602 631 635 627 656 681 727 621 688 608 652 662 669 650 696 702 643 658 625 601 605 721 649 632 679 619 700 596 690 694 664 595 659 654 637 598 660 729 613 733 667 0
-5184 0
-896 5185 0
-903 5185 0
-911 5185 0
-913 5185 0
-915 5185 0
-919 5185 0
-921 5185 0
-5185 929 988 964 969 896 905 925 921 958 909 913 903 949 908 902 895 926 979 907 915 932 933 911 931 939 943 945 919 901 950 898 954 959 1023 962 935 927 981 953 937 971 973 965 956 994 985 960 990 1035 996 967 1002 1004 1006 952 1000 1027 1029 1033 1021 0
-5186 0
-2113 5187 0
5187 -2126 0
5187 -2127 0
-5188 0
-5187 -5183 -5179 0
-5187 -5185 -5179 0
-5187 -5185 -5183 0
5179 5183 5185 5182 5180 5184 5181 5186 5188 0
-310 5189 0
287 -5189 271 220 230 228 223 200 325 257 215 212 254 274 226 268 239 236 260 222 314 249 247 304 253 259 216 339 263 266 261 277 269 214 225 281 283 284 285 289 295 297 330 233 310 307 320 323 209 327 328 206 331 333 337 338 202 341 344 347 199 0
-5190 0
-591 5191 0
-5191 563 589 578 569 591 558 552 572 561 571 556 551 590 585 577 549 547 583 580 554 559 581 586 564 0
-5192 0
-598 5193 0
-667 5193 0
-5193 612 729 726 667 665 673 626 611 602 618 598 727 691 605 656 706 681 632 650 670 645 664 624 616 653 703 710 657 662 622 619 659 685 635 679 680 610 683 655 643 693 621 734 595 649 716 719 721 723 724 608 596 700 733 629 735 737 740 743 677 0
-5194 0
905 -5195 919 993 911 964 924 980 1016 921 912 896 908 910 916 918 926 929 1034 932 943 945 981 902 950 898 949 895 935 922 957 953 965 955 1000 977 979 956 985 983 973 970 991 962 959 1006 1010 1003 1019 1021 1023 1040 967 1027 1029 1033 1024 1035 1037 1026 1043 0
-5196 0
-5197 2093 2113 2130 2125 2098 2104 2108 2128 2101 2114 2091 2109 2096 2123 2120 0
-5198 0
-5193 -5189 -5191 0
5191 5189 5193 5197 5190 5194 5196 5192 5198 0
5195 5193 5191 5197 5194 5192 5196 5190 5198 0
-205 5199 0
-207 5199 0
-211 5199 0
-213 5199 0
-217 5199 0
-219 5199 0
-229 5199 0
-231 5199 0
-235 5199 0
-237 5199 0
-241 5199 0
-243 5199 0
-256 5199 0
-258 5199 0
-262 5199 0
-264 5199 0
-270 5199 0
-273 5199 0
-275 5199 0
-280 5199 0
-292 5199 0
-294 5199 0
-298 5199 0
-300 5199 0
-306 5199 0
-308 5199 0
-311 5199 0
-313 5199 0
-318 5199 0
-5199 237 278 313 217 275 280 270 205 264 262 318 241 292 207 298 300 256 243 229 231 211 294 308 311 235 258 306 273 213 219 0
-5200 0
-548 5201 0
-550 5201 0
-553 5201 0
-555 5201 0
-557 5201 0
-560 5201 0
-562 5201 0
-565 5201 0
-566 5201 0
-567 5201 0
-568 5201 0
-570 5201 0
-573 5201 0
-574 5201 0
-575 5201 0
-576 5201 0
-579 5201 0
-582 5201 0
-584 5201 0
-587 5201 0
-588 5201 0
-592 5201 0
-593 5201 0
-594 5201 0
-5201 573 594 584 575 582 553 576 593 574 555 568 570 560 565 588 548 550 566 567 587 592 562 557 579 0
-5202 0
-601 5203 0
-603 5203 0
-607 5203 0
-609 5203 0
-613 5203 0
-615 5203 0
-625 5203 0
-627 5203 0
-631 5203 0
-633 5203 0
-637 5203 0
-639 5203 0
-652 5203 0
-654 5203 0
-658 5203 0
-660 5203 0
-666 5203 0
-669 5203 0
-671 5203 0
-674 5203 0
-676 5203 0
-688 5203 0
-690 5203 0
-694 5203 0
-696 5203 0
-702 5203 0
-704 5203 0
-709 5203 0
-714 5203 0
-5203 704 671 674 639 709 603 707 676 660 607 613 601 658 609 696 666 615 625 714 669 631 654 690 702 652 633 688 627 694 637 0
-5204 0
-901 5205 0
-903 5205 0
-907 5205 0
-909 5205 0
-913 5205 0
-915 5205 0
-925 5205 0
-927 5205 0
-931 5205 0
-933 5205 0
-937 5205 0
-939 5205 0
-952 5205 0
-958 5205 0
-960 5205 0
-966 5205 0
-971 5205 0
-974 5205 0
-988 5205 0
-994 5205 0
-996 5205 0
-1004 5205 0
-1009 5205 0
-5205 907 909 996 1007 915 913 1009 933 931 960 903 937 990 976 939 994 954 901 958 966 927 974 971 1014 988 1002 1004 925 952 969 0
-5206 0
-5207 0
-5208 0
-5199 -5201 0
-5199 -5203 0
-5205 -5199 0
-5203 -5201 0
-5205 -5201 0
-5205 -5203 0
5201 5199 5203 5205 5200 5204 5202 5206 5207 5208 0
5209 -203 0
5213 -708 0
-728 5213 0
-731 5213 0
-732 5213 0
-738 5213 0
5215 -928 0
5215 -934 0
5215 -938 0
5215 -940 0
5217 -2089 0
5217 -2095 0
5217 -2102 0
5217 -2105 0
5217 -2119 0
5217 -2127 0
-5217 2089 2102 2100 2099 2132 2110 2118 2134 2103 2094 2115 2129 2117 2090 2106 2111 2105 2092 2097 2116 2119 2107 2122 2127 2112 2121 2095 2124 2133 2131 2135 2136 2126 0
-5217 -5209 -5213 0
-5217 -5215 -5213 0
-728 5223 0
-731 5223 0
5225 -915 0
5227 -2102 0
5227 -2103 0
5227 -2111 0
5227 -2127 0
-5227 2094 2118 2099 2095 2097 2089 2126 2103 2090 2121 2111 2127 2100 2110 2105 2102 2092 2112 2129 2106 2124 2119 2107 2122 0
-5227 -5225 -5223 0
5229 -202 0
5229 -225 0
5229 -239 0
5229 -249 0
-265 5229 0
-267 5229 0
5229 -276 0
5229 -277 0
5229 -310 0
-334 5229 0
-348 5229 0
5231 -551 0
5231 -558 0
-559 5231 0
5231 -561 0
-564 5231 0
5231 -567 0
-572 5231 0
5231 -575 0
5231 -577 0
-580 5231 0
5231 -581 0
5231 -583 0
5231 -586 0
-595 5233 0
-596 5233 0
-598 5233 0
-608 5233 0
-611 5233 0
-626 5233 0
-632 5233 0
-635 5233 0
-649 5233 0
-650 5233 0
-664 5233 0
-665 5233 0
5233 -667 0
-700 5233 0
-706 5233 0
-733 5233 0
-735 5233 0
5235 -919 0
-5233 -5229 -5231 0
-5235 -5229 -5231 0
-214 5239 0
-270 5239 0
-278 5239 0
-297 5239 0
-311 5239 0
-328 5239 0
-338 5239 0
-341 5239 0
-612 5243 0
-655 5243 0
5243 -676 0
-677 5243 0
-691 5243 0
-693 5243 0
-703 5243 0
5243 -707 0
-710 5243 0
-714 5243 0
-734 5243 0
-737 5243 0
-957 5245 0
-966 5245 0
-974 5245 0
-980 5245 0
-1009 5245 0
-1014 5245 0
-2091 5247 0
-2093 5247 0
-2096 5247 0
-2098 5247 0
-2101 5247 0
-2104 5247 0
-2108 5247 0
-2109 5247 0
-2113 5247 0
-2114 5247 0
-2115 5247 0
-2116 5247 0
-2117 5247 0
-2120 5247 0
-2123 5247 0
-2125 5247 0
-2128 5247 0
-2130 5247 0
-2131 5247 0
-2132 5247 0
-2133 5247 0
-2134 5247 0
-2135 5247 0
-2136 5247 0
-5247 2134 2093 2132 2113 2115 2098 2133 2104 2130 2091 2123 2096 2120 2117 2131 2116 2108 2136 2101 2114 2128 2135 2125 2109 0
-5239 -5243 0
-5247 -5239 0
-5245 -5243 0
-5247 -5243 0
-5245 -5247 0
-349 5249 0
-350 5249 0
-351 5249 0
-352 5249 0
-353 5249 0
-354 5249 0
-355 5249 0
-356 5249 0
-357 5249 0
-5249 356 353 355 350 357 349 354 352 351 0
-5250 0
-1045 5251 0
-1046 5251 0
-1047 5251 0
-1048 5251 0
-1050 5251 0
-1051 5251 0
-1052 5251 0
-1053 5251 0
-1054 5251 0
-1055 5251 0
-1056 5251 0
-1057 5251 0
-1058 5251 0
-1059 5251 0
-1060 5251 0
-1061 5251 0
-1062 5251 0
-1063 5251 0
-1064 5251 0
-1065 5251 0
-1066 5251 0
-1067 5251 0
-1068 5251 0
-1069 5251 0
-1070 5251 0
-1071 5251 0
-1072 5251 0
-1073 5251 0
-1074 5251 0
-5251 1072 1045 1053 1051 1061 1068 1059 1047 1055 1046 1070 1066 1048 1071 1065 1067 1058 1069 1063 1049 1064 1073 1054 1052 1060 1056 1057 1050 1074 1062 0
-5252 0
-1345 5253 0
-1346 5253 0
-1347 5253 0
-1348 5253 0
-1349 5253 0
-1350 5253 0
-1351 5253 0
-1352 5253 0
-1353 5253 0
-5253 1353 1347 1351 1345 1350 1352 1349 1348 1346 0
-5254 0
-1543 5255 0
-1544 5255 0
-1545 5255 0
-1546 5255 0
-1547 5255 0
-1548 5255 0
-1549 5255 0
-1550 5255 0
-1551 5255 0
-5255 1550 1543 1546 1545 1547 1551 1548 1544 1549 0
-5256 0
-2137 5257 0
-2138 5257 0
-2139 5257 0
-2140 5257 0
-2141 5257 0
-2142 5257 0
-2143 5257 0
-2144 5257 0
-2145 5257 0
-5257 2140 2137 2144 2142 2138 2143 2141 2139 2145 0
-5258 0
-5249 -5251 0
-5249 -5253 0
-5249 -5257 0
-5251 -5253 0
-5251 -5255 0
-5251 -5257 0
-5255 -5253 0
-5257 -5255 0
5249 5251 5253 5255 5257 5254 5252 5256 5250 5258 0
-358 5259 0
-359 5259 0
-360 5259 0
-361 5259 0
-362 5259 0
-363 5259 0
-365 5259 0
-366 5259 0
-368 5259 0
-369 5259 0
-370 5259 0
-371 5259 0
-372 5259 0
-374 5259 0
-375 5259 0
-377 5259 0
-378 5259 0
-380 5259 0
-381 5259 0
361 -5259 368 364 365 376 370 381 363 358 366 379 375 359 373 377 371 369 374 372 367 360 378 362 380 0
-5260 0
-1075 5261 0
-1076 5261 0
-1077 5261 0
-1078 5261 0
-1079 5261 0
-1080 5261 0
-1081 5261 0
-1082 5261 0
-1093 5261 0
-1094 5261 0
-1098 5261 0
-1099 5261 0
-1101 5261 0
-1102 5261 0
-1103 5261 0
-1104 5261 0
-1105 5261 0
-1106 5261 0
-1107 5261 0
-1108 5261 0
-1109 5261 0
-1111 5261 0
-1114 5261 0
-1116 5261 0
-1117 5261 0
-1118 5261 0
-1119 5261 0
-1120 5261 0
-1123 5261 0
-1124 5261 0
-1126 5261 0
-1129 5261 0
-1130 5261 0
1091 -5261 1114 1075 1119 1109 1108 1127 1087 1132 1113 1124 1129 1134 1117 1106 1121 1107 1080 1099 1100 1115 1096 1097 1112 1131 1078 1095 1092 1102 1130 1079 1085 1086 1098 1088 1111 1116 1084 1122 1094 1105 1093 1104 1118 1120 1090 1125 1081 1103 1123 1082 1126 1128 1101 1077 1089 1083 1133 1110 1076 0
-5262 0
-1360 5263 0
-1361 5263 0
-1362 5263 0
-1363 5263 0
-1364 5263 0
-1365 5263 0
-1366 5263 0
-1367 5263 0
-1368 5263 0
-5263 1356 1358 1363 1357 1362 1367 1355 1364 1366 1361 1360 1365 1359 1354 1368 0
-5264 0
-1560 5265 0
-1561 5265 0
-1562 5265 0
-1563 5265 0
-1565 5265 0
-1571 5265 0
-1572 5265 0
-1575 5265 0
1553 -5265 1568 1554 1565 1557 1562 1558 1560 1561 1552 1563 1564 1559 1566 1567 1555 1569 1570 1571 1572 1573 1574 1575 1556 0
-5266 0
-2146 5267 0
-2147 5267 0
-2148 5267 0
-2149 5267 0
-2150 5267 0
-2151 5267 0
-2152 5267 0
-2153 5267 0
-2154 5267 0
-2155 5267 0
-2156 5267 0
-2157 5267 0
-2158 5267 0
-2159 5267 0
2157 2150 -5267 2146 2147 2160 2153 2158 2151 2152 2155 2148 2156 2159 2149 2154 0
-5268 0
-5261 -5259 -5265 0
-5259 -5265 -5263 0
-5259 -5267 -5265 0
-5261 -5265 -5263 0
-5261 -5267 -5265 0
5261 5259 5263 5265 5260 5264 5262 5266 5268 0
5267 5261 5263 5259 5260 5264 5266 5262 5268 0
5263 5267 5259 5265 5264 5262 5266 5260 5268 0
5263 5267 5261 5265 5264 5262 5266 5260 5268 0
-383 5269 0
-385 5269 0
-388 5269 0
-390 5269 0
-391 5269 0
-392 5269 0
-393 5269 0
-394 5269 0
-395 5269 0
387 -5269 393 390 388 382 385 384 386 389 383 396 392 395 394 391 0
-5270 0
-1135 5271 0
-1136 5271 0
-1137 5271 0
-1157 5271 0
-1159 5271 0
-1162 5271 0
-1164 5271 0
-1166 5271 0
-1170 5271 0
-1171 5271 0
-1172 5271 0
-1173 5271 0
-1174 5271 0
-1175 5271 0
-1176 5271 0
-1177 5271 0
-1178 5271 0
-1179 5271 0
-1180 5271 0
-1181 5271 0
-1182 5271 0
-1183 5271 0
-1184 5271 0
-1185 5271 0
-1186 5271 0
-1187 5271 0
-1188 5271 0
-1189 5271 0
-1190 5271 0
-1191 5271 0
-1192 5271 0
-1193 5271 0
-1194 5271 0
1144 -5271 1189 1150 1160 1188 1183 1148 1192 1167 1187 1155 1177 1193 1135 1137 1171 1147 1191 1170 1169 1185 1162 1152 1157 1149 1151 1154 1194 1182 1163 1164 1175 1165 1136 1158 1145 1143 1159 1178 1146 1172 1141 1156 1142 1139 1181 1140 1161 1190 1166 1173 1153 1186 1138 1179 1176 1174 1184 1180 1168 0
-5272 0
-1370 5273 0
-1372 5273 0
-1375 5273 0
-1376 5273 0
-1377 5273 0
-1378 5273 0
-1379 5273 0
-1380 5273 0
-1381 5273 0
-1382 5273 0
-1383 5273 0
-1384 5273 0
-1385 5273 0
-1386 5273 0
-1387 5273 0
-1388 5273 0
-1389 5273 0
-1390 5273 0
-1391 5273 0
-1392 5273 0
1369 1389 -5273 1392 1384 1386 1376 1383 1378 1381 1385 1372 1390 1374 1388 1387 1382 1379 1377 1370 1375 1380 1391 1373 1371 0
-5274 0
-1576 5275 0
-1577 5275 0
-1578 5275 0
-1579 5275 0
-1580 5275 0
-1581 5275 0
-1582 5275 0
-1583 5275 0
-1584 5275 0
-1585 5275 0
-1586 5275 0
-1587 5275 0
-1588 5275 0
-1589 5275 0
-1590 5275 0
-5275 1578 1589 1585 1584 1587 1581 1590 1580 1583 1588 1582 1586 1579 1577 1576 0
-5276 0
-2161 5277 0
-2162 5277 0
-2163 5277 0
-2164 5277 0
-2165 5277 0
-2167 5277 0
-2168 5277 0
-2169 5277 0
-2170 5277 0
-2171 5277 0
-2172 5277 0
-2173 5277 0
-2174 5277 0
-2177 5277 0
-2180 5277 0
-2181 5277 0
-2182 5277 0
-5277 2184 2172 2171 2180 2167 2174 2175 2165 2168 2182 2176 2163 2164 2177 2161 2179 2166 2178 2169 2162 2181 2173 2170 2183 0
-5278 0
-5271 -5277 -5269 0
-5277 -5269 -5273 0
-5271 -5277 -5273 0
-5271 -5277 -5275 0
5269 5271 5275 5277 5274 5270 5276 5272 5278 0
5273 5269 5275 5277 5274 5272 5276 5270 5278 0
5273 5271 5275 5277 5274 5272 5276 5270 5278 0
-365 5279 0
-369 5279 0
-371 5279 0
-372 5279 0
-374 5279 0
-375 5279 0
-380 5279 0
-381 5279 0
-393 5279 0
-394 5279 0
-396 5279 0
-5279 387 370 369 388 358 392 385 363 366 359 368 393 362 376 372 373 374 375 379 377 378 364 380 381 382 383 384 361 386 367 391 389 365 390 360 394 395 396 371 0
-5280 0
-1075 5281 0
-1076 5281 0
-1077 5281 0
-1078 5281 0
-1079 5281 0
-1080 5281 0
-1081 5281 0
-1082 5281 0
-1083 5281 0
-1084 5281 0
-1086 5281 0
-1087 5281 0
-1088 5281 0
-1089 5281 0
-1090 5281 0
-1092 5281 0
-1093 5281 0
-1094 5281 0
-1095 5281 0
-1096 5281 0
-1097 5281 0
-1098 5281 0
-1135 5281 0
-1136 5281 0
-1137 5281 0
-1138 5281 0
-1139 5281 0
-1140 5281 0
-1141 5281 0
-1143 5281 0
-1146 5281 0
-1147 5281 0
-1150 5281 0
-1154 5281 0
-1155 5281 0
-1156 5281 0
-1157 5281 0
-1158 5281 0
-1159 5281 0
-1162 5281 0
-1163 5281 0
-1164 5281 0
-1165 5281 0
-1167 5281 0
-1168 5281 0
-1169 5281 0
-1170 5281 0
-5281 1145 1091 1090 1089 1167 1162 1097 1146 1169 1135 1160 1170 1079 1164 1136 1139 1075 1081 1148 1157 1085 1084 1155 1168 1141 1140 1165 1151 1149 1076 1147 1144 1094 1086 1095 1077 1088 1138 1096 1083 1152 1082 1098 1137 1163 1153 1154 1143 1080 1078 1092 1159 1156 1161 1142 1150 1093 1166 1158 1087 0
-5282 0
-5283 0
-5284 0
-1554 5285 0
-1555 5285 0
-1556 5285 0
-1557 5285 0
-1558 5285 0
-1559 5285 0
-1560 5285 0
-1561 5285 0
-1562 5285 0
-1563 5285 0
-1564 5285 0
-1565 5285 0
-1566 5285 0
-1567 5285 0
-1568 5285 0
-1569 5285 0
-1570 5285 0
-1571 5285 0
-1572 5285 0
-1573 5285 0
-1574 5285 0
-1575 5285 0
-1582 5285 0
-1585 5285 0
-1586 5285 0
-1587 5285 0
-1588 5285 0
-1589 5285 0
-1590 5285 0
-5285 1585 1568 1556 1557 1565 1562 1558 1560 1561 1554 1563 1564 1552 1566 1567 1555 1569 1570 1571 1572 1573 1574 1575 1553 1581 1576 1577 1578 1579 1582 1583 1584 1559 1586 1587 1588 1589 1590 1580 0
-5286 0
-5287 0
-5288 0
-5281 -5279 -5285 0
5279 5281 5280 5282 5283 5284 5286 5287 5288 0
5285 5279 5282 5283 5284 5280 5286 5287 5288 0
5285 5281 5282 5283 5284 5280 5286 5287 5288 0
-349 5289 0
-350 5289 0
-351 5289 0
-352 5289 0
-353 5289 0
-354 5289 0
-355 5289 0
-356 5289 0
-357 5289 0
-382 5289 0
-383 5289 0
-384 5289 0
-385 5289 0
-386 5289 0
-387 5289 0
-388 5289 0
-389 5289 0
-390 5289 0
-391 5289 0
-392 5289 0
-393 5289 0
-394 5289 0
-395 5289 0
-396 5289 0
-5289 385 355 388 393 352 349 357 353 354 383 351 384 382 386 387 356 389 390 350 392 394 395 396 391 0
-5290 0
-1045 5291 0
-1046 5291 0
-1047 5291 0
-1048 5291 0
-1049 5291 0
-1050 5291 0
-1171 5291 0
-1172 5291 0
-1173 5291 0
-1174 5291 0
-1175 5291 0
-1176 5291 0
-1177 5291 0
-1178 5291 0
-1179 5291 0
-1180 5291 0
-1181 5291 0
-1182 5291 0
-1184 5291 0
-1185 5291 0
-1186 5291 0
-1187 5291 0
-1188 5291 0
-1190 5291 0
-1191 5291 0
-1192 5291 0
-1193 5291 0
-1194 5291 0
-5291 1178 1050 1173 1193 1191 1182 1045 1171 1194 1172 1188 1190 1177 1049 1192 1183 1046 1175 1179 1047 1174 1048 1187 1181 1186 1176 1184 1189 1180 1185 0
-5292 0
-5293 0
-5294 0
-1543 5295 0
-1544 5295 0
-1545 5295 0
-1546 5295 0
-1547 5295 0
-1548 5295 0
-1549 5295 0
-1550 5295 0
-1551 5295 0
-1576 5295 0
-1577 5295 0
-1578 5295 0
-1579 5295 0
-1580 5295 0
-1581 5295 0
-1582 5295 0
-1583 5295 0
-1584 5295 0
-1585 5295 0
-1586 5295 0
-1587 5295 0
-1588 5295 0
-1589 5295 0
-1590 5295 0
-5295 1586 1546 1580 1578 1585 1587 1588 1590 1547 1582 1579 1545 1584 1548 1544 1550 1583 1551 1543 1549 1581 1577 1589 1576 0
-5296 0
-5297 0
-5298 0
-5291 -5289 0
-5289 -5295 0
-5291 -5295 0
5291 5289 5295 5292 5293 5294 5290 5296 5297 5298 0
-350 5299 0
-351 5299 0
-352 5299 0
-353 5299 0
-354 5299 0
-355 5299 0
-357 5299 0
-364 5299 0
-365 5299 0
-366 5299 0
-369 5299 0
-371 5299 0
-372 5299 0
-374 5299 0
-375 5299 0
-380 5299 0
-381 5299 0
-5299 360 354 370 364 355 349 353 350 371 376 368 379 381 377 369 356 362 374 375 365 351 358 380 372 367 366 373 361 359 357 352 363 378 0
-5300 0
-1051 5301 0
-1052 5301 0
-1053 5301 0
-1054 5301 0
-1055 5301 0
-1056 5301 0
-1057 5301 0
-1058 5301 0
-1059 5301 0
-1060 5301 0
-1062 5301 0
-1063 5301 0
-1064 5301 0
-1065 5301 0
-1066 5301 0
-1068 5301 0
-1069 5301 0
-1070 5301 0
-1071 5301 0
-1072 5301 0
-1073 5301 0
-1074 5301 0
-1099 5301 0
-1100 5301 0
-1101 5301 0
-1102 5301 0
-1103 5301 0
-1104 5301 0
-1105 5301 0
-1106 5301 0
-1107 5301 0
-1108 5301 0
-1109 5301 0
-1111 5301 0
-1112 5301 0
-1113 5301 0
-1114 5301 0
-1115 5301 0
-1116 5301 0
-1117 5301 0
-1118 5301 0
-1119 5301 0
-1120 5301 0
-1121 5301 0
-1122 5301 0
-1123 5301 0
-1124 5301 0
-1125 5301 0
-1126 5301 0
-1127 5301 0
-1128 5301 0
-1129 5301 0
-1130 5301 0
-1131 5301 0
-1132 5301 0
-1133 5301 0
-1134 5301 0
-5301 1114 1072 1121 1051 1119 1071 1067 1108 1065 1073 1123 1059 1099 1062 1063 1109 1069 1129 1132 1130 1100 1103 1058 1125 1060 1111 1118 1113 1134 1104 1105 1066 1057 1056 1068 1061 1074 1053 1116 1110 1107 1070 1064 1054 1120 1112 1128 1102 1122 1115 1126 1127 1124 1106 1055 1117 1052 1101 1131 1133 0
-5302 0
-5303 0
-5304 0
-1543 5305 0
-1544 5305 0
-1545 5305 0
-1546 5305 0
-1547 5305 0
-1548 5305 0
-1549 5305 0
-1550 5305 0
-1551 5305 0
-1558 5305 0
-1559 5305 0
-1560 5305 0
-1561 5305 0
-1562 5305 0
-1563 5305 0
-1564 5305 0
-1565 5305 0
-1566 5305 0
-1567 5305 0
-1568 5305 0
-1570 5305 0
-1571 5305 0
-1572 5305 0
-1573 5305 0
-1575 5305 0
-5305 1568 1544 1557 1565 1547 1548 1562 1550 1551 1543 1554 1545 1552 1553 1558 1555 1560 1561 1559 1563 1564 1546 1566 1567 1549 1569 1570 1571 1572 1573 1574 1575 1556 0
-5306 0
-5307 0
-5308 0
-5301 -5299 -5305 0
5299 5301 5300 5302 5303 5304 5306 5307 5308 0
5305 5299 5302 5303 5304 5300 5306 5307 5308 0
5305 5301 5302 5303 5304 5300 5306 5307 5308 0
-5309 0
-5310 0
-1099 5311 0
-1100 5311 0
-1101 5311 0
-1102 5311 0
-1103 5311 0
-1106 5311 0
-1108 5311 0
-1109 5311 0
-1114 5311 0
-1115 5311 0
-1116 5311 0
-1117 5311 0
-1123 5311 0
-1124 5311 0
-1129 5311 0
-1171 5311 0
-1172 5311 0
-1173 5311 0
-1174 5311 0
-1175 5311 0
-1176 5311 0
-1177 5311 0
-1178 5311 0
-1179 5311 0
-1180 5311 0
-1181 5311 0
-1182 5311 0
-1183 5311 0
-1184 5311 0
-1185 5311 0
-1186 5311 0
-1187 5311 0
-1188 5311 0
-1189 5311 0
-1190 5311 0
-1191 5311 0
-1192 5311 0
-1193 5311 0
-1194 5311 0
-5311 1188 1109 1119 1114 1134 1108 1110 1127 1113 1124 1128 1178 1133 1099 1129 1189 1132 1112 1118 1107 1102 1120 1123 1117 1172 1100 1105 1111 1187 1121 1125 1177 1116 1131 1194 1193 1130 1173 1171 1174 1106 1175 1126 1115 1180 1101 1179 1182 1181 1176 1183 1184 1186 1185 1104 1103 1190 1191 1192 1122 0
-5312 0
-1354 5313 0
-1355 5313 0
-1357 5313 0
-1358 5313 0
-1363 5313 0
-1364 5313 0
-1365 5313 0
-1370 5313 0
-1371 5313 0
-1372 5313 0
-1375 5313 0
-1376 5313 0
-1377 5313 0
-1379 5313 0
-1380 5313 0
-1381 5313 0
-1382 5313 0
-1383 5313 0
-1384 5313 0
-1385 5313 0
-1386 5313 0
-1387 5313 0
-1388 5313 0
-1389 5313 0
-1390 5313 0
-1391 5313 0
-1392 5313 0
1369 -5313 1363 1380 1384 1383 1392 1370 1359 1368 1366 1364 1376 1391 1386 1381 1374 1365 1379 1367 1362 1378 1375 1387 1361 1360 1388 1382 1385 1371 1355 1377 1372 1373 1389 1390 1358 1357 1354 1356 0
-5314 0
-5315 0
-5316 0
-2146 5317 0
-2147 5317 0
-2148 5317 0
-2149 5317 0
-2150 5317 0
-2151 5317 0
-2152 5317 0
-2153 5317 0
-2154 5317 0
-2155 5317 0
-2158 5317 0
-2159 5317 0
-2160 5317 0
-2165 5317 0
-2166 5317 0
-2167 5317 0
-2168 5317 0
-2169 5317 0
-2170 5317 0
-2171 5317 0
-2172 5317 0
-2173 5317 0
-2174 5317 0
-2177 5317 0
-2178 5317 0
-2179 5317 0
-2180 5317 0
-2181 5317 0
-2182 5317 0
-5317 2168 2149 2146 2156 2158 2159 2162 2178 2166 2172 2179 2174 2165 2150 2153 2176 2161 2184 2171 2160 2173 2175 2152 2148 2177 2167 2180 2151 2181 2155 2170 2154 2164 2147 2163 2182 2157 2183 2169 0
-5318 0
-5311 -5313 -5317 0
5311 5313 5309 5312 5310 5314 5315 5316 5318 0
5317 5311 5309 5312 5314 5315 5316 5310 5318 0
5317 5313 5312 5309 5314 5315 5316 5310 5318 0
-5319 0
-5320 0
-1144 5321 0
-1159 5321 0
-1162 5321 0
-1166 5321 0
-5321 1157 1054 1072 1061 1052 1153 1069 1163 1065 1053 1135 1056 1059 1057 1067 1064 1164 1051 1146 1170 1070 1136 1063 1149 1162 1155 1169 1074 1073 1152 1165 1161 1140 1055 1144 1058 1142 1150 1147 1145 1138 1139 1148 1166 1151 1137 1156 1068 1158 1154 1143 1062 1167 1066 1160 1168 1141 1071 1060 1159 0
-5322 0
-1350 5323 0
-1383 5323 0
-1387 5323 0
1369 -5323 1389 1350 1392 1384 1377 1385 1345 1370 1383 1380 1353 1386 1387 1348 1382 1381 1388 1379 1375 1390 1347 1352 1346 1374 1391 1376 1349 1378 1351 1373 1372 1371 0
-5324 0
-5325 0
-5326 0
-2137 5327 0
-2138 5327 0
-2139 5327 0
-2140 5327 0
-2141 5327 0
-2142 5327 0
-2143 5327 0
-2144 5327 0
-2145 5327 0
-2162 5327 0
-2163 5327 0
-2164 5327 0
-2165 5327 0
-2167 5327 0
-2169 5327 0
-2172 5327 0
-2174 5327 0
-2175 5327 0
-2179 5327 0
-2181 5327 0
-2182 5327 0
-2183 5327 0
-2184 5327 0
-5327 2174 2144 2167 2142 2161 2170 2139 2162 2175 2145 2143 2178 2166 2184 2172 2176 2179 2169 2173 2171 2164 2168 2163 2165 2141 2177 2140 2138 2180 2182 2137 2183 2181 0
-5328 0
-5321 -5323 -5327 0
5321 5323 5319 5322 5320 5324 5325 5326 5328 0
5327 5321 5319 5322 5324 5325 5326 5320 5328 0
5327 5323 5322 5319 5324 5325 5326 5320 5328 0
-5329 0
-5330 0
-1045 5331 0
-1046 5331 0
-1047 5331 0
-1048 5331 0
-1049 5331 0
-1050 5331 0
-1075 5331 0
-1076 5331 0
-1077 5331 0
-1078 5331 0
-1079 5331 0
-1080 5331 0
-1081 5331 0
-1082 5331 0
-1083 5331 0
-1084 5331 0
-1085 5331 0
-1086 5331 0
-1087 5331 0
-1088 5331 0
-1089 5331 0
-1090 5331 0
-1091 5331 0
-1092 5331 0
-1093 5331 0
-1094 5331 0
-1095 5331 0
-1096 5331 0
-1097 5331 0
-1098 5331 0
-5331 1079 1046 1049 1045 1048 1091 1097 1096 1082 1081 1083 1084 1087 1090 1089 1098 1092 1085 1088 1093 1050 1078 1095 1080 1077 1086 1075 1094 1076 1047 0
-5332 0
-1345 5333 0
-1346 5333 0
-1347 5333 0
-1348 5333 0
-1349 5333 0
-1350 5333 0
-1351 5333 0
-1352 5333 0
-1353 5333 0
-1357 5333 0
-1359 5333 0
-1360 5333 0
-1361 5333 0
-1362 5333 0
-1363 5333 0
-1364 5333 0
-1365 5333 0
-1366 5333 0
-1367 5333 0
-1368 5333 0
-5333 1357 1350 1347 1361 1363 1353 1364 1365 1368 1355 1367 1346 1366 1358 1360 1362 1352 1351 1349 1345 1354 1348 1359 1356 0
-5334 0
-5335 0
-5336 0
-2137 5337 0
-2138 5337 0
-2139 5337 0
-2140 5337 0
-2141 5337 0
-2142 5337 0
-2143 5337 0
-2144 5337 0
-2145 5337 0
-2146 5337 0
-2147 5337 0
-2148 5337 0
-2149 5337 0
-2150 5337 0
-2151 5337 0
-2152 5337 0
-2153 5337 0
-2154 5337 0
-2155 5337 0
-2156 5337 0
-2157 5337 0
-2158 5337 0
-2159 5337 0
-2160 5337 0
-5337 2158 2137 2143 2160 2142 2145 2153 2141 2149 2156 2148 2146 2155 2147 2140 2150 2139 2157 2144 2152 2154 2159 2138 2151 0
-5338 0
-5331 -5333 0
-5331 -5337 0
-5337 -5333 0
5333 5331 5337 5332 5330 5334 5335 5336 5329 5338 0
-151 5339 0
-152 5339 0
-153 5339 0
-154 5339 0
-155 5339 0
-156 5339 0
-157 5339 0
-158 5339 0
-159 5339 0
-5339 154 151 158 156 157 159 155 152 153 0
-5340 0
-397 5341 0
-398 5341 0
-399 5341 0
-400 5341 0
-401 5341 0
-402 5341 0
-403 5341 0
-404 5341 0
-405 5341 0
-406 5341 0
-407 5341 0
-408 5341 0
-409 5341 0
-410 5341 0
-411 5341 0
-412 5341 0
-413 5341 0
-414 5341 0
-415 5341 0
-416 5341 0
-417 5341 0
-418 5341 0
-419 5341 0
-420 5341 0
-421 5341 0
-422 5341 0
-423 5341 0
-424 5341 0
-425 5341 0
-426 5341 0
-5341 405 402 397 399 404 398 407 418 424 425 414 410 415 422 406 412 413 423 409 416 401 400 403 420 411 408 419 417 421 426 0
-5342 0
-1591 5343 0
-1592 5343 0
-1593 5343 0
-1594 5343 0
-1595 5343 0
-1596 5343 0
-1597 5343 0
-1598 5343 0
-1599 5343 0
-1600 5343 0
-1601 5343 0
-1602 5343 0
-1603 5343 0
-1604 5343 0
-1605 5343 0
-1606 5343 0
-1607 5343 0
-1608 5343 0
-1609 5343 0
-1610 5343 0
-1611 5343 0
-1612 5343 0
-1613 5343 0
-1614 5343 0
-1615 5343 0
-1616 5343 0
-1617 5343 0
-1618 5343 0
-1619 5343 0
-1620 5343 0
-5343 1615 1592 1599 1614 1603 1619 1618 1595 1591 1606 1602 1597 1617 1607 1611 1616 1600 1593 1609 1594 1596 1604 1610 1613 1612 1601 1608 1620 1598 1605 0
-5344 0
-1741 5345 0
-1742 5345 0
-1743 5345 0
-1744 5345 0
-1745 5345 0
-1746 5345 0
-1747 5345 0
-1748 5345 0
-1749 5345 0
-5345 1749 1742 1746 1741 1744 1748 1745 1747 1743 0
-5346 0
-1789 5347 0
-1790 5347 0
-1792 5347 0
-1794 5347 0
-1795 5347 0
-1796 5347 0
-1797 5347 0
-1798 5347 0
-1799 5347 0
-1800 5347 0
-1801 5347 0
-1802 5347 0
-1803 5347 0
-1804 5347 0
-1805 5347 0
-1807 5347 0
-1808 5347 0
-1809 5347 0
-1813 5347 0
-1814 5347 0
-1815 5347 0
-1816 5347 0
-1817 5347 0
-1818 5347 0
-5347 1793 1803 1818 1807 1811 1791 1817 1804 1790 1815 1814 1798 1816 1813 1792 1806 1805 1808 1797 1789 1809 1810 1796 1812 1801 1795 1800 1799 1802 1794 0
-5348 0
-5341 -5339 0
-5343 -5339 0
-5345 -5339 0
-5347 -5339 0
-5341 -5343 0
-5341 -5345 0
-5347 -5341 0
-5345 -5343 0
-5347 -5343 0
-5347 -5345 0
5339 5341 5343 5345 5347 5344 5342 5346 5340 5348 0
-160 5349 0
-161 5349 0
-162 5349 0
-163 5349 0
-164 5349 0
-165 5349 0
-166 5349 0
-167 5349 0
-168 5349 0
-169 5349 0
-170 5349 0
-171 5349 0
-172 5349 0
-173 5349 0
-174 5349 0
-175 5349 0
-176 5349 0
-177 5349 0
-178 5349 0
-179 5349 0
-180 5349 0
-181 5349 0
-182 5349 0
-183 5349 0
-5349 180 174 167 179 166 177 181 160 173 183 169 172 176 165 164 182 170 175 178 163 162 161 168 171 0
-5350 0
-431 5351 0
-432 5351 0
-433 5351 0
-434 5351 0
-437 5351 0
-438 5351 0
-439 5351 0
-440 5351 0
-443 5351 0
-444 5351 0
-445 5351 0
-446 5351 0
-447 5351 0
-448 5351 0
-449 5351 0
-452 5351 0
-453 5351 0
-456 5351 0
-457 5351 0
-462 5351 0
-463 5351 0
-466 5351 0
-467 5351 0
-468 5351 0
-469 5351 0
-470 5351 0
-471 5351 0
-472 5351 0
-473 5351 0
-474 5351 0
-475 5351 0
-476 5351 0
-477 5351 0
-478 5351 0
-479 5351 0
-480 5351 0
-481 5351 0
-482 5351 0
-483 5351 0
-484 5351 0
-485 5351 0
-486 5351 0
435 -5351 453 469 467 451 485 480 444 427 483 455 440 477 436 481 446 486 478 456 459 452 482 462 437 463 484 432 468 430 447 429 470 457 450 439 466 461 443 465 445 441 475 449 431 460 442 471 474 464 433 434 448 476 458 479 472 473 454 438 428 0
-5352 0
-1621 5353 0
-1622 5353 0
-1623 5353 0
-1624 5353 0
-1625 5353 0
-1626 5353 0
-1628 5353 0
-1634 5353 0
-1637 5353 0
-1639 5353 0
-1641 5353 0
-1643 5353 0
-1645 5353 0
-1646 5353 0
-1647 5353 0
-1648 5353 0
-1649 5353 0
-1650 5353 0
-1651 5353 0
-1652 5353 0
-1653 5353 0
-1654 5353 0
-1655 5353 0
-1656 5353 0
-1658 5353 0
-1661 5353 0
-1662 5353 0
-1663 5353 0
-1664 5353 0
-1669 5353 0
-1670 5353 0
-1671 5353 0
-1672 5353 0
-1675 5353 0
-1676 5353 0
-1677 5353 0
-1679 5353 0
-1680 5353 0
-5353 1680 1621 1668 1646 1645 1669 1661 1640 1649 1625 1626 1678 1673 1622 1628 1672 1658 1663 1648 1650 1665 1624 1639 1654 1656 1667 1630 1647 1652 1633 1641 1637 1634 1632 1662 1651 1664 1657 1642 1670 1638 1655 1644 1675 1676 1666 1660 1671 1629 1677 1627 1631 1623 1674 1653 1643 1636 1659 1635 1679 0
-5354 0
-1756 5355 0
-1757 5355 0
-1758 5355 0
-1759 5355 0
-1760 5355 0
-1761 5355 0
-1762 5355 0
-1763 5355 0
-1764 5355 0
1751 1756 -5355 1759 1752 1761 1755 1758 1762 1763 1764 1760 1753 1757 1750 1754 0
-5356 0
-1843 5357 0
-1844 5357 0
-1845 5357 0
-5357 1868 1821 1845 1851 1855 1873 1832 1820 1877 1842 1871 1840 1839 1862 1874 1876 1850 1878 1830 1861 1837 1833 1846 1836 1844 1831 1838 1835 1848 1847 1829 1849 1852 1853 1854 1828 1856 1857 1858 1859 1860 1875 1827 1863 1864 1865 1866 1867 1843 1869 1870 1841 1872 1834 1825 1824 1826 1822 1819 1823 0
-5358 0
-5349 -5353 -5351 0
-5349 -5357 -5351 0
-5349 -5357 -5353 0
-5349 -5357 -5355 0
-5353 -5351 -5357 0
-5353 -5357 -5355 0
5349 5351 5353 5357 5350 5354 5356 5352 5358 0
5355 5349 5353 5357 5354 5352 5356 5350 5358 0
-184 5359 0
-186 5359 0
-193 5359 0
-194 5359 0
-195 5359 0
-196 5359 0
-197 5359 0
-198 5359 0
-5359 198 184 186 185 196 188 189 194 187 190 191 192 195 197 193 0
-5360 0
-487 5361 0
-488 5361 0
-489 5361 0
-494 5361 0
-500 5361 0
-501 5361 0
-502 5361 0
-506 5361 0
-508 5361 0
-509 5361 0
-513 5361 0
-519 5361 0
-520 5361 0
-523 5361 0
-524 5361 0
-529 5361 0
-530 5361 0
-532 5361 0
-533 5361 0
-534 5361 0
-535 5361 0
-536 5361 0
-537 5361 0
-538 5361 0
-539 5361 0
-540 5361 0
-541 5361 0
-542 5361 0
-543 5361 0
-544 5361 0
-545 5361 0
-546 5361 0
496 -5361 544 501 502 503 542 526 518 519 497 495 491 513 510 541 514 545 520 494 505 523 511 546 537 493 516 532 527 507 509 498 504 512 499 521 488 522 515 533 517 508 528 492 487 524 489 500 490 525 529 531 530 540 539 534 538 536 543 535 506 0
-5362 0
-1681 5363 0
-1682 5363 0
-1683 5363 0
-1684 5363 0
-1685 5363 0
-1686 5363 0
-1687 5363 0
-1688 5363 0
-1689 5363 0
-1690 5363 0
-1691 5363 0
-1692 5363 0
-1693 5363 0
-1694 5363 0
-1695 5363 0
-1696 5363 0
-1697 5363 0
-1698 5363 0
-1699 5363 0
-1700 5363 0
-1701 5363 0
-1702 5363 0
-1703 5363 0
-1704 5363 0
-1705 5363 0
-1706 5363 0
-1707 5363 0
-1708 5363 0
-1709 5363 0
-1710 5363 0
-1711 5363 0
-1712 5363 0
-1713 5363 0
-1714 5363 0
-1716 5363 0
-1717 5363 0
-1718 5363 0
-1719 5363 0
-1720 5363 0
-1721 5363 0
-1722 5363 0
-1723 5363 0
-1724 5363 0
-1725 5363 0
-1726 5363 0
-1727 5363 0
-1728 5363 0
-1729 5363 0
-1730 5363 0
-1731 5363 0
-1732 5363 0
-1733 5363 0
-1734 5363 0
-1735 5363 0
-1736 5363 0
-1737 5363 0
-1738 5363 0
-1739 5363 0
-1740 5363 0
-5363 1737 1688 1709 1700 1714 1697 1683 1687 1703 1695 1704 1682 1689 1706 1716 1740 1711 1726 1684 1696 1698 1712 1691 1707 1710 1699 1686 1718 1719 1705 1715 1690 1722 1720 1721 1694 1724 1727 1693 1692 1701 1708 1681 1685 1735 1736 1717 1725 1730 1728 1729 1733 1713 1723 1739 1731 1732 1738 1734 1702 0
-5364 0
-1771 5365 0
-1772 5365 0
-1773 5365 0
-1774 5365 0
-1775 5365 0
-1776 5365 0
-1777 5365 0
-1778 5365 0
-1779 5365 0
-1780 5365 0
-1781 5365 0
-1782 5365 0
-1783 5365 0
-1784 5365 0
-1785 5365 0
-1786 5365 0
-1787 5365 0
-1788 5365 0
1768 1772 -5365 1775 1783 1777 1771 1787 1765 1788 1782 1780 1770 1784 1781 1774 1778 1785 1776 1773 1786 1779 1767 1766 1769 0
-5366 0
-1879 5367 0
-1880 5367 0
-1881 5367 0
-1888 5367 0
-1889 5367 0
-1909 5367 0
-1910 5367 0
-1911 5367 0
-1912 5367 0
-1921 5367 0
-1922 5367 0
-1926 5367 0
-5367 1922 1879 1899 1882 1881 1880 1933 1915 1935 1936 1911 1912 1898 1918 1890 1917 1892 1886 1934 1907 1901 1893 1897 1902 1900 1906 1925 1937 1932 1903 1888 1923 1883 1884 1904 1938 1908 1914 1909 1887 1905 1889 1885 1926 1894 1891 1895 1896 1910 1919 1916 1921 1920 1928 1924 1929 1913 1930 1927 1931 0
-5368 0
-5359 -5363 -5367 0
-5359 -5367 -5365 0
-5363 -5361 -5367 0
-5361 -5367 -5365 0
-5363 -5367 -5365 0
5359 5361 5363 5367 5360 5364 5366 5362 5368 0
5365 5359 5363 5367 5364 5362 5366 5360 5368 0
-160 5369 0
-161 5369 0
-162 5369 0
-163 5369 0
-164 5369 0
-165 5369 0
-166 5369 0
-167 5369 0
-168 5369 0
-169 5369 0
-170 5369 0
-171 5369 0
-172 5369 0
-173 5369 0
-174 5369 0
-175 5369 0
-176 5369 0
-177 5369 0
-178 5369 0
-179 5369 0
-180 5369 0
-181 5369 0
-182 5369 0
-183 5369 0
-184 5369 0
-185 5369 0
-186 5369 0
-188 5369 0
-190 5369 0
-191 5369 0
-192 5369 0
-193 5369 0
-194 5369 0
-195 5369 0
-196 5369 0
-197 5369 0
-5369 186 172 178 192 160 173 179 187 194 189 177 198 184 180 193 197 182 165 175 171 191 190 166 185 176 170 174 188 163 164 183 167 196 162 161 195 169 181 168 0
-5370 0
-427 5371 0
-428 5371 0
-429 5371 0
-430 5371 0
-431 5371 0
-432 5371 0
-433 5371 0
-434 5371 0
-435 5371 0
-436 5371 0
-437 5371 0
-438 5371 0
-439 5371 0
-440 5371 0
-441 5371 0
-442 5371 0
-443 5371 0
-444 5371 0
-445 5371 0
-446 5371 0
-447 5371 0
-448 5371 0
-449 5371 0
-450 5371 0
-487 5371 0
-488 5371 0
-489 5371 0
-490 5371 0
-491 5371 0
-492 5371 0
-493 5371 0
-494 5371 0
-495 5371 0
-496 5371 0
-497 5371 0
-498 5371 0
-499 5371 0
-500 5371 0
-501 5371 0
-502 5371 0
-503 5371 0
-504 5371 0
-505 5371 0
-506 5371 0
-507 5371 0
-508 5371 0
-509 5371 0
-510 5371 0
-511 5371 0
-512 5371 0
-513 5371 0
-514 5371 0
-515 5371 0
-516 5371 0
-517 5371 0
-518 5371 0
-519 5371 0
-520 5371 0
-521 5371 0
-522 5371 0
-5371 496 437 503 502 428 518 442 439 489 517 436 501 495 499 511 488 500 520 446 444 490 448 514 440 433 450 487 505 508 430 493 516 431 522 492 447 497 494 429 427 519 512 438 498 432 443 491 449 504 445 509 510 507 506 515 513 434 441 521 435 0
-5372 0
-1622 5373 0
-1624 5373 0
-1625 5373 0
-1626 5373 0
-1628 5373 0
-1634 5373 0
-1637 5373 0
-1641 5373 0
-1643 5373 0
-1681 5373 0
-1682 5373 0
-1684 5373 0
-1685 5373 0
-1686 5373 0
-1687 5373 0
-1688 5373 0
-1689 5373 0
-1690 5373 0
-1691 5373 0
-1692 5373 0
-1696 5373 0
-1697 5373 0
-1702 5373 0
-1703 5373 0
-1704 5373 0
-1705 5373 0
-1709 5373 0
-1710 5373 0
-1711 5373 0
-1713 5373 0
-5373 1704 1642 1688 1697 1703 1710 1706 1691 1643 1689 1696 1635 1634 1705 1682 1692 1626 1621 1681 1709 1630 1633 1716 1639 1690 1625 1644 1699 1702 1636 1712 1623 1627 1695 1708 1687 1715 1686 1683 1637 1632 1631 1638 1700 1694 1714 1684 1641 1698 1685 1707 1640 1701 1622 1711 1628 1624 1713 1693 1629 0
-5374 0
-5375 0
-5376 0
-1822 5377 0
-1879 5377 0
-1880 5377 0
-1881 5377 0
-5377 1880 1840 1879 1881 1904 1914 1889 1891 1819 1839 1906 1911 1890 1907 1909 1894 1913 1842 1885 1887 1841 1837 1838 1912 1827 1888 1826 1824 1825 1910 1884 1893 1822 1828 1829 1830 1821 1831 1832 1886 1892 1823 1883 1898 1895 1882 1897 1899 1900 1901 1903 1908 1905 1896 1833 1834 1835 1836 1902 1820 0
-5378 0
-5369 -5373 -5371 0
-5369 -5377 -5371 0
-5369 -5373 -5377 0
-5373 -5371 -5377 0
5371 5369 5377 5372 5374 5375 5376 5370 5378 0
5373 5369 5377 5370 5374 5375 5376 5372 5378 0
5371 5373 5377 5370 5374 5375 5376 5372 5378 0
-151 5379 0
-152 5379 0
-153 5379 0
-155 5379 0
-156 5379 0
-157 5379 0
-158 5379 0
-159 5379 0
-184 5379 0
-185 5379 0
-186 5379 0
-187 5379 0
-188 5379 0
-189 5379 0
-190 5379 0
-191 5379 0
-192 5379 0
-193 5379 0
-194 5379 0
-195 5379 0
-197 5379 0
-198 5379 0
-5379 186 159 187 197 151 157 158 184 185 156 188 189 192 190 153 191 198 193 194 155 195 196 154 152 0
-5380 0
-397 5381 0
-398 5381 0
-399 5381 0
-400 5381 0
-401 5381 0
-402 5381 0
-523 5381 0
-524 5381 0
-525 5381 0
-526 5381 0
-527 5381 0
-528 5381 0
-529 5381 0
-530 5381 0
-531 5381 0
-533 5381 0
-534 5381 0
-535 5381 0
-536 5381 0
-537 5381 0
-538 5381 0
-539 5381 0
-540 5381 0
-541 5381 0
-542 5381 0
-543 5381 0
-544 5381 0
-545 5381 0
-546 5381 0
-5381 544 400 399 530 534 526 545 398 532 540 397 541 539 533 525 524 543 546 529 401 523 538 527 542 536 537 402 535 531 528 0
-5382 0
-1591 5383 0
-1592 5383 0
-1593 5383 0
-1594 5383 0
-1595 5383 0
-1596 5383 0
-1717 5383 0
-1718 5383 0
-1719 5383 0
-1720 5383 0
-1721 5383 0
-1722 5383 0
-1723 5383 0
-1724 5383 0
-1725 5383 0
-1726 5383 0
-1727 5383 0
-1728 5383 0
-1729 5383 0
-1730 5383 0
-1731 5383 0
-1733 5383 0
-1734 5383 0
-1735 5383 0
-1736 5383 0
-1737 5383 0
-1738 5383 0
-1739 5383 0
-1740 5383 0
-5383 1724 1593 1595 1591 1594 1728 1721 1596 1740 1731 1718 1719 1730 1736 1737 1717 1738 1725 1732 1729 1722 1592 1735 1726 1727 1720 1739 1734 1733 1723 0
-5384 0
-5385 0
-5386 0
-1915 5387 0
-1916 5387 0
-1918 5387 0
-1919 5387 0
-1920 5387 0
-1921 5387 0
-1922 5387 0
-1923 5387 0
-1924 5387 0
-1925 5387 0
-1926 5387 0
-1928 5387 0
-1929 5387 0
-1931 5387 0
-1934 5387 0
-1935 5387 0
-1936 5387 0
-1937 5387 0
-5387 1793 1920 1924 1937 1918 1938 1794 1921 1917 1934 1792 1935 1790 1923 1930 1916 1915 1925 1926 1936 1791 1928 1789 1927 1922 1919 1933 1931 1932 1929 0
-5388 0
-5381 -5379 0
-5383 -5379 0
-5387 -5379 0
5379 5381 5383 5387 5380 5384 5385 5386 5382 5388 0
-151 5389 0
-152 5389 0
-153 5389 0
-154 5389 0
-155 5389 0
-156 5389 0
-157 5389 0
-158 5389 0
-159 5389 0
-160 5389 0
-161 5389 0
-163 5389 0
-164 5389 0
-166 5389 0
-167 5389 0
-169 5389 0
-170 5389 0
-172 5389 0
-173 5389 0
-174 5389 0
-175 5389 0
-176 5389 0
-177 5389 0
-179 5389 0
-181 5389 0
-182 5389 0
-183 5389 0
-5389 179 151 158 153 154 167 159 164 181 160 177 172 157 161 171 180 176 163 169 182 174 156 178 162 183 175 155 165 166 170 152 168 173 0
-5390 0
-403 5391 0
-407 5391 0
-408 5391 0
-409 5391 0
-410 5391 0
-413 5391 0
-414 5391 0
-415 5391 0
-416 5391 0
-419 5391 0
-420 5391 0
-421 5391 0
-422 5391 0
-423 5391 0
-424 5391 0
-425 5391 0
-426 5391 0
-452 5391 0
-453 5391 0
-456 5391 0
-462 5391 0
-463 5391 0
-468 5391 0
-477 5391 0
-478 5391 0
-485 5391 0
-5391 453 413 467 485 469 484 420 454 424 465 462 480 421 463 451 403 477 408 406 458 486 452 409 410 466 404 411 417 456 422 423 407 459 460 468 415 419 464 481 478 482 461 426 476 457 412 416 474 470 425 405 414 479 418 472 471 473 483 475 455 0
-5392 0
-1598 5393 0
-1600 5393 0
-1601 5393 0
-1602 5393 0
-1608 5393 0
-1609 5393 0
-1613 5393 0
-1614 5393 0
-1615 5393 0
-1616 5393 0
-1619 5393 0
-1620 5393 0
-1646 5393 0
-1647 5393 0
-1648 5393 0
-1649 5393 0
-1650 5393 0
-1651 5393 0
-1652 5393 0
-1653 5393 0
-1655 5393 0
-1656 5393 0
-1658 5393 0
-1659 5393 0
-1660 5393 0
-1661 5393 0
-1662 5393 0
-1663 5393 0
-1664 5393 0
-1670 5393 0
-1671 5393 0
-1672 5393 0
-1675 5393 0
-1676 5393 0
-1677 5393 0
-1678 5393 0
-5393 1646 1607 1663 1651 1668 1649 1602 1672 1670 1661 1619 1656 1650 1611 1654 1658 1599 1648 1610 1613 1669 1664 1665 1676 1604 1680 1678 1616 1659 1605 1657 1679 1601 1662 1608 1660 1597 1617 1647 1671 1655 1600 1618 1645 1620 1666 1603 1673 1606 1614 1667 1609 1598 1674 1675 1612 1653 1677 1652 1615 0
-5394 0
-5395 0
-5396 0
-1843 5397 0
-1844 5397 0
-1845 5397 0
-5397 1849 1795 1855 1798 1796 1799 1802 1845 1851 1868 1815 1862 1811 1813 1810 1860 1807 1812 1803 1806 1817 1816 1797 1818 1804 1801 1814 1805 1844 1847 1848 1853 1800 1856 1808 1871 1854 1857 1850 1859 1858 1861 1852 1863 1877 1865 1864 1867 1866 1869 1843 1846 1870 1809 1872 1875 1874 1873 1876 1878 0
-5398 0
-5393 -5391 -5389 0
-5397 -5391 -5389 0
-5397 -5393 -5389 0
-5393 -5397 -5391 0
5391 5389 5393 5392 5390 5394 5395 5396 5398 0
5391 5397 5389 5392 5394 5395 5396 5390 5398 0
5397 5393 5389 5390 5394 5395 5396 5392 5398 0
5391 5397 5393 5390 5394 5395 5396 5392 5398 0
-5399 0
-5400 0
-452 5401 0
-453 5401 0
-456 5401 0
-457 5401 0
-462 5401 0
-463 5401 0
-467 5401 0
-468 5401 0
-469 5401 0
-477 5401 0
-478 5401 0
-485 5401 0
-486 5401 0
-523 5401 0
-524 5401 0
-529 5401 0
-530 5401 0
-532 5401 0
-533 5401 0
-534 5401 0
-535 5401 0
-536 5401 0
-537 5401 0
-538 5401 0
-539 5401 0
-540 5401 0
-541 5401 0
-542 5401 0
-543 5401 0
-544 5401 0
-545 5401 0
-546 5401 0
-5401 544 451 453 467 485 469 452 542 479 474 486 524 480 523 463 464 460 454 482 471 461 543 484 462 545 457 529 546 476 456 477 478 527 466 534 470 536 459 473 475 525 528 472 458 455 532 533 465 468 539 531 535 537 481 538 530 483 541 526 540 0
-5402 0
-1647 5403 0
-1650 5403 0
-1651 5403 0
-1656 5403 0
-1662 5403 0
-1664 5403 0
-1670 5403 0
-1671 5403 0
-1672 5403 0
-1679 5403 0
-1717 5403 0
-5403 1740 1649 1668 1673 1672 1670 1678 1680 1661 1717 1718 1658 1663 1669 1653 1676 1648 1720 1646 1736 1657 1735 1647 1722 1665 1721 1655 1674 1654 1656 1652 1719 1679 1650 1725 1667 1666 1723 1664 1724 1727 1739 1645 1675 1677 1728 1737 1660 1662 1729 1730 1732 1733 1731 1734 1659 1726 1671 1651 1738 0
-5404 0
-1756 5405 0
-1757 5405 0
-1758 5405 0
-1759 5405 0
-1760 5405 0
-1761 5405 0
-1762 5405 0
-1763 5405 0
-1764 5405 0
-1771 5405 0
-1772 5405 0
-1773 5405 0
-1774 5405 0
-1775 5405 0
-1776 5405 0
-1777 5405 0
-1778 5405 0
-1779 5405 0
-1780 5405 0
-1781 5405 0
-1782 5405 0
-1783 5405 0
-1784 5405 0
-1785 5405 0
-1786 5405 0
-1787 5405 0
-1788 5405 0
1770 -5405 1772 1775 1759 1783 1784 1780 1757 1786 1787 1788 1762 1750 1774 1760 1758 1773 1776 1755 1763 1779 1782 1778 1756 1785 1764 1781 1761 1765 1771 1766 1767 1777 1753 1754 1769 1768 1751 1752 0
-5406 0
-1843 5407 0
-1844 5407 0
-1845 5407 0
-5407 1933 1844 1845 1851 1861 1868 1846 1877 1938 1876 1856 1878 1873 1855 1866 1850 1858 1923 1869 1930 1862 1875 1864 1860 1849 1863 1843 1848 1872 1931 1932 1854 1920 1867 1937 1853 1870 1859 1852 1874 1915 1857 1916 1918 1917 1921 1865 1847 1919 1928 1935 1922 1925 1871 1924 1927 1926 1934 1929 1936 0
-5408 0
-5403 -5407 -5401 0
-5407 -5401 -5405 0
-5403 -5407 -5405 0
5401 5403 5407 5402 5400 5404 5406 5399 5408 0
5405 5401 5407 5402 5404 5400 5406 5399 5408 0
5405 5403 5407 5399 5404 5400 5406 5402 5408 0
-5409 0
-5410 0
-403 5411 0
-404 5411 0
-405 5411 0
-406 5411 0
-407 5411 0
-408 5411 0
-409 5411 0
-410 5411 0
-411 5411 0
-412 5411 0
-413 5411 0
-414 5411 0
-415 5411 0
-416 5411 0
-417 5411 0
-418 5411 0
-419 5411 0
-420 5411 0
-421 5411 0
-422 5411 0
-423 5411 0
-424 5411 0
-425 5411 0
-426 5411 0
-492 5411 0
-493 5411 0
-498 5411 0
-499 5411 0
-508 5411 0
-509 5411 0
-515 5411 0
-516 5411 0
-5411 503 411 502 517 496 407 506 403 501 408 416 424 406 518 493 418 505 423 495 417 426 409 490 514 500 519 405 412 415 410 414 425 413 512 497 498 491 419 494 521 504 487 422 520 404 511 507 508 510 421 516 513 420 489 515 499 509 492 488 522 0
-5412 0
-1597 5413 0
-1598 5413 0
-1603 5413 0
-1609 5413 0
-1615 5413 0
-1618 5413 0
-1620 5413 0
-1681 5413 0
-1682 5413 0
-1683 5413 0
-1686 5413 0
-1688 5413 0
-1692 5413 0
-1694 5413 0
-1697 5413 0
-1702 5413 0
-1703 5413 0
-1704 5413 0
-1705 5413 0
-1708 5413 0
-1710 5413 0
-5413 1697 1599 1710 1688 1704 1619 1683 1617 1685 1696 1695 1702 1686 1687 1684 1689 1614 1703 1612 1714 1607 1682 1692 1698 1691 1610 1620 1618 1681 1605 1708 1606 1690 1604 1603 1609 1600 1616 1705 1601 1611 1597 1699 1700 1615 1715 1701 1711 1602 1716 1707 1598 1693 1613 1712 1694 1608 1713 1709 1706 0
-5414 0
-1741 5415 0
-1742 5415 0
-1743 5415 0
-1744 5415 0
-1745 5415 0
-1747 5415 0
-1748 5415 0
-1749 5415 0
5415 -1771 0
5415 -1772 0
-1773 5415 0
-1774 5415 0
5415 -1775 0
5415 -1776 0
5415 -1777 0
5415 -1778 0
5415 -1779 0
-1780 5415 0
-1781 5415 0
-1782 5415 0
5415 -1783 0
5415 -1784 0
-1785 5415 0
-1786 5415 0
5415 -1787 0
-1788 5415 0
-5415 1772 1747 1775 1783 1780 1771 1786 1784 1787 1777 1770 1746 1788 1743 1744 1785 1745 1778 1765 1781 1782 1748 1749 1773 1742 1741 1776 1774 1766 1779 1767 1769 1768 0
-5416 0
-1879 5417 0
-1880 5417 0
-1881 5417 0
-5417 1812 1881 1879 1891 1914 1886 1796 1909 1906 1912 1890 1815 1911 1913 1800 1817 1894 1799 1904 1795 1889 1892 1808 1910 1806 1814 1813 1807 1899 1888 1880 1907 1887 1809 1810 1818 1908 1885 1811 1882 1893 1801 1897 1798 1884 1895 1898 1900 1896 1883 1901 1797 1902 1903 1802 1803 1816 1804 1905 1805 0
-5418 0
-5413 -5411 -5415 0
-5413 -5411 -5417 0
-5413 -5417 -5415 0
5413 5411 5417 5412 5410 5414 5416 5409 5418 0
-5419 0
-5420 0
-397 5421 0
-398 5421 0
-399 5421 0
-400 5421 0
-401 5421 0
-402 5421 0
-427 5421 0
-428 5421 0
-429 5421 0
-430 5421 0
-431 5421 0
-432 5421 0
-433 5421 0
-434 5421 0
-435 5421 0
-437 5421 0
-438 5421 0
-439 5421 0
-440 5421 0
-441 5421 0
-443 5421 0
-444 5421 0
-445 5421 0
-446 5421 0
-447 5421 0
-448 5421 0
-449 5421 0
-450 5421 0
-5421 445 397 432 435 400 398 446 438 439 440 402 431 437 434 443 429 433 450 430 442 436 448 449 444 401 441 428 427 447 399 0
-5422 0
-1591 5423 0
-1592 5423 0
-1593 5423 0
-1594 5423 0
-1595 5423 0
-1596 5423 0
-1621 5423 0
-1622 5423 0
-1623 5423 0
-1624 5423 0
-1625 5423 0
-1626 5423 0
-1627 5423 0
-1628 5423 0
-1629 5423 0
-1631 5423 0
-1632 5423 0
-1633 5423 0
-1634 5423 0
-1635 5423 0
-1636 5423 0
-1637 5423 0
-1638 5423 0
-1640 5423 0
-1641 5423 0
-1642 5423 0
-1644 5423 0
-5423 1644 1594 1640 1635 1591 1636 1643 1596 1626 1634 1628 1622 1627 1632 1642 1624 1641 1638 1595 1592 1630 1639 1629 1621 1625 1631 1623 1593 1637 1633 0
-5424 0
-1741 5425 0
-1742 5425 0
-1743 5425 0
-1744 5425 0
-1745 5425 0
-1746 5425 0
-1747 5425 0
-1748 5425 0
-1749 5425 0
-1756 5425 0
-1757 5425 0
-1758 5425 0
-1759 5425 0
-1760 5425 0
-1761 5425 0
-1762 5425 0
-1763 5425 0
-1764 5425 0
-5425 1756 1746 1755 1759 1764 1742 1750 1747 1757 1741 1745 1758 1760 1761 1743 1762 1744 1763 1748 1752 1753 1749 1751 1754 0
-5426 0
-1831 5427 0
-1832 5427 0
-1834 5427 0
-1836 5427 0
-1837 5427 0
-1838 5427 0
-1840 5427 0
-1842 5427 0
-5427 1793 1791 1823 1821 1833 1841 1838 1792 1840 1839 1789 1842 1819 1829 1832 1822 1831 1830 1834 1828 1837 1835 1836 1827 1820 1824 1790 1825 1794 1826 0
-5428 0
-5423 -5421 0
-5421 -5425 0
-5427 -5421 0
-5423 -5425 0
-5427 -5425 0
5421 5423 5425 5427 5420 5424 5419 5426 5422 5428 0
-160 5429 0
-161 5429 0
-162 5429 0
-163 5429 0
-164 5429 0
-165 5429 0
-184 5429 0
-185 5429 0
-186 5429 0
-5429 184 160 165 185 186 162 164 161 163 0
-5430 0
-427 5431 0
-428 5431 0
-429 5431 0
-432 5431 0
-451 5431 0
-452 5431 0
-453 5431 0
-454 5431 0
-455 5431 0
-456 5431 0
-457 5431 0
-458 5431 0
-459 5431 0
-487 5431 0
-488 5431 0
-489 5431 0
-490 5431 0
-491 5431 0
-523 5431 0
-524 5431 0
-526 5431 0
-5431 495 452 427 490 430 453 451 455 431 526 492 489 457 494 528 487 524 458 456 432 525 491 454 428 523 459 493 527 429 488 0
-5432 0
-1075 5433 0
-1076 5433 0
-1077 5433 0
-1078 5433 0
-1079 5433 0
-1080 5433 0
-1099 5433 0
-1100 5433 0
-1101 5433 0
-1102 5433 0
-1103 5433 0
-1104 5433 0
-1105 5433 0
-1106 5433 0
-1107 5433 0
-1135 5433 0
-1136 5433 0
-1137 5433 0
-1138 5433 0
-1139 5433 0
-1140 5433 0
-1141 5433 0
-1142 5433 0
-1143 5433 0
-1171 5433 0
-1172 5433 0
-1173 5433 0
-1174 5433 0
-1175 5433 0
-1176 5433 0
-5433 1140 1079 1103 1104 1078 1099 1106 1172 1176 1080 1142 1141 1105 1102 1077 1100 1143 1135 1075 1137 1101 1107 1173 1171 1138 1174 1136 1175 1139 1076 0
-5434 0
-1621 5435 0
-1622 5435 0
-1623 5435 0
-1624 5435 0
-1625 5435 0
-1626 5435 0
-1645 5435 0
-1646 5435 0
-1647 5435 0
-1648 5435 0
-1649 5435 0
-1650 5435 0
-1651 5435 0
-1652 5435 0
-1653 5435 0
-1681 5435 0
-1682 5435 0
-1683 5435 0
-1684 5435 0
-1685 5435 0
-1686 5435 0
-1687 5435 0
-1688 5435 0
-1689 5435 0
-1717 5435 0
-1718 5435 0
-1719 5435 0
-1720 5435 0
-1721 5435 0
-1722 5435 0
-5435 1684 1652 1621 1681 1688 1683 1718 1645 1687 1653 1626 1622 1722 1647 1682 1625 1646 1689 1624 1649 1686 1648 1719 1721 1650 1623 1720 1685 1651 1717 0
-5436 0
-2146 5437 0
-2147 5437 0
-2148 5437 0
-2161 5437 0
-2162 5437 0
-2163 5437 0
-2164 5437 0
-2165 5437 0
-2166 5437 0
-5437 2164 2146 2162 2166 2163 2147 2148 2165 2161 0
-5438 0
-5429 -5431 0
-5433 -5429 0
-5429 -5435 0
-5429 -5437 0
-5433 -5431 0
-5435 -5431 0
-5437 -5431 0
-5433 -5435 0
-5433 -5437 0
-5437 -5435 0
5431 5433 5429 5435 5437 5434 5432 5436 5430 5438 0
-151 5439 0
-152 5439 0
-154 5439 0
-155 5439 0
-156 5439 0
-167 5439 0
-168 5439 0
-170 5439 0
-188 5439 0
-189 5439 0
-192 5439 0
-5439 173 154 196 189 170 151 191 194 167 188 172 166 192 187 190 155 169 156 195 168 152 193 153 171 0
-5440 0
-397 5441 0
5441 -399 0
-403 5441 0
-409 5441 0
-435 5441 0
-438 5441 0
-460 5441 0
-462 5441 0
-464 5441 0
-465 5441 0
5441 -467 0
-468 5441 0
-500 5441 0
5441 -501 0
-5442 0
-1046 5443 0
-1054 5443 0
-1056 5443 0
-1116 5443 0
-1145 5443 0
-1148 5443 0
-1150 5443 0
-1157 5443 0
-1178 5443 0
-1181 5443 0
-5443 1085 1045 1144 1153 1177 1178 1084 1188 1116 1159 1059 1047 1187 1152 1108 1053 1082 1161 1054 1183 1060 1160 1112 1055 1145 1051 1185 1157 1046 1149 1086 1052 1115 1062 1109 1056 1111 1147 1110 1154 1155 1058 1148 1146 1081 1151 1114 1057 1113 1156 1150 1179 1180 1181 1182 1083 1184 1158 1186 1061 0
-5444 0
-1592 5445 0
-1593 5445 0
-1598 5445 0
-1601 5445 0
-1606 5445 0
-1608 5445 0
-1655 5445 0
-1656 5445 0
-1658 5445 0
-1661 5445 0
-1662 5445 0
-1696 5445 0
-1697 5445 0
-1699 5445 0
-1702 5445 0
-1703 5445 0
-1706 5445 0
-5445 1657 1591 1629 1697 1656 1691 1695 1706 1696 1705 1703 1602 1599 1598 1661 1654 1659 1630 1601 1692 1693 1694 1608 1690 1704 1702 1592 1724 1727 1607 1699 1701 1632 1593 1698 1627 1662 1726 1700 1606 1631 1597 1628 1655 1723 1732 1725 1707 1604 1603 1605 1660 1734 1728 1730 1658 1600 1729 1731 1733 0
-5446 0
-2137 5447 0
-2138 5447 0
-2139 5447 0
-2149 5447 0
-2150 5447 0
-2167 5447 0
-2168 5447 0
-2169 5447 0
-2172 5447 0
-2173 5447 0
-2176 5447 0
-5447 2174 2138 2150 2167 2168 2175 2171 2169 2172 2176 2137 2149 2173 2139 2170 0
-5448 0
-5439 -5445 -5441 0
-5443 -5439 -5445 0
-5447 -5439 -5445 0
-5443 -5445 -5441 0
-5447 -5443 -5445 0
5439 5443 5445 5447 5444 5442 5446 5440 5448 0
-157 5449 0
-158 5449 0
-159 5449 0
-177 5449 0
-178 5449 0
-179 5449 0
-180 5449 0
-197 5449 0
-5449 176 157 198 159 158 183 177 179 181 174 175 197 178 180 182 0
-5450 0
-400 5451 0
-401 5451 0
-402 5451 0
-415 5451 0
-416 5451 0
-419 5451 0
-420 5451 0
-421 5451 0
-422 5451 0
-439 5451 0
-440 5451 0
-442 5451 0
-443 5451 0
-444 5451 0
-445 5451 0
-446 5451 0
-450 5451 0
-469 5451 0
-470 5451 0
-474 5451 0
-477 5451 0
-478 5451 0
-483 5451 0
-484 5451 0
-485 5451 0
-486 5451 0
-514 5451 0
-515 5451 0
-516 5451 0
-521 5451 0
-522 5451 0
-541 5451 0
-542 5451 0
-543 5451 0
-544 5451 0
-5451 445 416 469 544 441 478 515 481 400 402 518 421 446 450 516 425 471 477 479 522 424 545 426 444 420 439 442 542 517 443 440 485 483 423 418 417 474 475 472 476 422 473 401 447 484 448 480 419 521 514 519 486 449 470 541 415 546 482 543 520 0
-5452 0
-1048 5453 0
-1050 5453 0
-1117 5453 0
-1118 5453 0
-1125 5453 0
-1126 5453 0
-1162 5453 0
-1164 5453 0
-1166 5453 0
-1193 5453 0
-5453 1119 1071 1089 1065 1067 1162 1127 1170 1163 1125 1165 1094 1069 1123 1072 1190 1133 1095 1118 1066 1063 1166 1091 1087 1134 1129 1117 1167 1169 1088 1194 1121 1073 1192 1191 1126 1074 1064 1131 1090 1122 1130 1128 1048 1098 1124 1120 1068 1164 1193 1096 1092 1050 1097 1168 1132 1070 1093 1049 1189 0
-5454 0
-1594 5455 0
-1595 5455 0
-1596 5455 0
-1609 5455 0
-1610 5455 0
-1611 5455 0
-1612 5455 0
-1613 5455 0
-1614 5455 0
-1617 5455 0
-1618 5455 0
-1633 5455 0
-1634 5455 0
-1635 5455 0
-1636 5455 0
-1637 5455 0
-1638 5455 0
-1641 5455 0
-1642 5455 0
-1643 5455 0
-1663 5455 0
-1664 5455 0
-1665 5455 0
-1666 5455 0
-1667 5455 0
-1668 5455 0
-1669 5455 0
-1670 5455 0
-1671 5455 0
-1672 5455 0
-1674 5455 0
-1708 5455 0
-1709 5455 0
-1710 5455 0
-1712 5455 0
-1716 5455 0
-1735 5455 0
-1736 5455 0
-1737 5455 0
-1738 5455 0
-1739 5455 0
-1740 5455 0
-5455 1670 1595 1680 1667 1636 1668 1672 1673 1713 1609 1644 1617 1612 1664 1663 1708 1711 1715 1616 1740 1641 1640 1669 1642 1710 1637 1676 1610 1675 1618 1666 1665 1634 1611 1594 1643 1709 1635 1674 1619 1671 1677 1714 1638 1615 1712 1613 1596 1633 1614 1737 1678 1620 1679 1739 1735 1716 1738 1736 1639 0
-5456 0
-2140 5457 0
-2143 5457 0
-2145 5457 0
-2151 5457 0
-2152 5457 0
-2153 5457 0
-2156 5457 0
-2157 5457 0
-2158 5457 0
-2159 5457 0
-2160 5457 0
-2177 5457 0
-2178 5457 0
-2179 5457 0
-2180 5457 0
-2183 5457 0
-2184 5457 0
-5457 2158 2140 2181 2177 2178 2184 2155 2145 2179 2159 2157 2156 2180 2143 2144 2154 2160 2153 2182 2141 2151 2142 2152 2183 0
-5458 0
-5455 -5451 -5449 0
-5451 -5449 -5457 0
-5453 -5449 -5457 0
-5455 -5449 -5457 0
-5453 -5455 -5451 0
-5455 -5451 -5457 0
-5453 -5455 -5457 0
5449 5451 5453 5457 5450 5454 5456 5452 5458 0
5459 -151 0
5459 -152 0
5459 -153 0
-154 5459 0
5459 -155 0
5459 -156 0
5459 -159 0
-166 5459 0
-167 5459 0
-169 5459 0
-170 5459 0
-171 5459 0
-174 5459 0
-187 5459 0
-188 5459 0
-189 5459 0
5459 -190 0
5459 -191 0
5459 -192 0
-198 5459 0
-407 5461 0
-408 5461 0
-417 5461 0
-418 5461 0
-462 5461 0
-463 5461 0
-470 5461 0
-475 5461 0
-476 5461 0
5461 -477 0
-498 5461 0
-499 5461 0
-529 5461 0
-530 5461 0
-5461 544 443 462 469 478 465 474 529 463 401 407 515 461 541 477 501 403 444 442 405 440 415 400 545 546 498 496 460 406 471 472 473 416 417 516 543 475 479 470 480 464 439 419 497 418 531 402 441 404 530 533 500 499 532 514 408 542 420 476 534 0
-1049 5463 0
-1050 5463 0
-1056 5463 0
-1111 5463 0
-1118 5463 0
-1124 5463 0
-1125 5463 0
-1162 5463 0
-1163 5463 0
-1164 5463 0
-1178 5463 0
-5463 1109 1067 1110 1128 1065 1119 1164 1051 1108 1125 1149 1063 1163 1048 1066 1146 1193 1088 1145 1162 1127 1177 1148 1111 1054 1089 1092 1112 1113 1120 1121 1122 1064 1052 1178 1056 1126 1124 1055 1053 1118 1087 1050 1123 1068 1147 1144 1090 1049 1179 1180 1181 1182 1189 1190 1191 1192 1194 1117 1091 0
-1596 5465 0
-1598 5465 0
-1601 5465 0
-1609 5465 0
-1613 5465 0
5465 -1614 0
-1634 5465 0
-1637 5465 0
-1655 5465 0
-1656 5465 0
-1658 5465 0
5465 -1664 0
-1670 5465 0
-1671 5465 0
-1672 5465 0
-1690 5465 0
-1691 5465 0
-1692 5465 0
-1694 5465 0
-1708 5465 0
-1709 5465 0
-1710 5465 0
-1725 5465 0
-1735 5465 0
-1737 5465 0
-5465 1694 1670 1671 1636 1667 1668 1728 1669 1654 1690 1658 1664 1657 1695 1614 1594 1602 1740 1709 1598 1611 1595 1610 1601 1638 1693 1663 1655 1637 1597 1737 1633 1725 1634 1710 1735 1727 1723 1692 1599 1691 1596 1656 1635 1708 1612 1738 1665 1613 1739 1674 1659 1726 1600 1666 1609 1724 1673 1736 1672 0
-5465 -5461 -5459 0
-5465 -5463 -5459 0
-5465 -5463 -5461 0
-157 5469 0
-158 5469 0
-159 5469 0
-160 5469 0
-161 5469 0
-162 5469 0
-163 5469 0
-164 5469 0
-165 5469 0
-174 5469 0
-175 5469 0
-176 5469 0
-177 5469 0
-178 5469 0
-179 5469 0
-180 5469 0
-181 5469 0
-182 5469 0
-183 5469 0
-184 5469 0
-185 5469 0
-186 5469 0
-197 5469 0
-198 5469 0
-5469 175 159 198 157 163 178 184 180 158 185 183 186 162 179 164 177 176 160 197 165 182 174 181 161 0
-5470 0
-421 5471 0
-422 5471 0
-423 5471 0
-424 5471 0
-425 5471 0
-426 5471 0
-445 5471 0
-446 5471 0
-447 5471 0
-448 5471 0
-449 5471 0
-450 5471 0
-451 5471 0
-452 5471 0
-453 5471 0
-481 5471 0
-482 5471 0
-483 5471 0
-484 5471 0
-485 5471 0
-486 5471 0
-487 5471 0
-488 5471 0
-489 5471 0
-517 5471 0
-518 5471 0
-519 5471 0
-520 5471 0
-521 5471 0
-522 5471 0
-5471 487 453 450 486 518 519 481 448 452 421 422 482 451 517 449 483 446 521 425 484 488 489 426 485 445 447 423 424 522 520 0
-5472 0
-1069 5473 0
-1070 5473 0
-1071 5473 0
-1072 5473 0
-1073 5473 0
-1074 5473 0
-1093 5473 0
-1094 5473 0
-1095 5473 0
-1096 5473 0
-1097 5473 0
-1098 5473 0
-1099 5473 0
-1100 5473 0
-1101 5473 0
-1129 5473 0
-1130 5473 0
-1131 5473 0
-1132 5473 0
-1133 5473 0
-1134 5473 0
-1135 5473 0
-1136 5473 0
-1137 5473 0
-1166 5473 0
-1167 5473 0
-1168 5473 0
-1170 5473 0
-5473 1135 1134 1069 1072 1098 1133 1129 1093 1168 1169 1071 1137 1166 1165 1096 1074 1136 1101 1095 1070 1130 1132 1099 1097 1131 1167 1100 1073 1170 1094 0
-5474 0
-1615 5475 0
-1616 5475 0
-1617 5475 0
-1618 5475 0
-1619 5475 0
-1620 5475 0
-1639 5475 0
-1640 5475 0
-1641 5475 0
-1642 5475 0
-1643 5475 0
-1644 5475 0
-1645 5475 0
-1646 5475 0
-1647 5475 0
-1675 5475 0
-1676 5475 0
-1677 5475 0
-1678 5475 0
-1679 5475 0
-1680 5475 0
-1681 5475 0
-1682 5475 0
-1683 5475 0
-1711 5475 0
-1712 5475 0
-1713 5475 0
-1714 5475 0
-1715 5475 0
-1716 5475 0
-5475 1639 1615 1677 1680 1644 1712 1683 1645 1678 1647 1640 1716 1681 1642 1679 1713 1620 1714 1619 1643 1617 1641 1676 1646 1616 1715 1675 1682 1618 1711 0
-5476 0
-5477 0
-5478 0
-5471 -5469 0
-5473 -5469 0
-5475 -5469 0
-5473 -5471 0
-5475 -5471 0
-5473 -5475 0
5469 5471 5473 5475 5470 5474 5472 5476 5477 5478 0
-152 5479 0
-160 5479 0
-161 5479 0
-162 5479 0
-163 5479 0
-164 5479 0
-165 5479 0
-184 5479 0
-185 5479 0
-186 5479 0
-5479 164 155 187 184 186 173 194 196 188 151 162 192 160 189 166 190 185 191 171 170 152 161 156 172 167 163 154 195 165 168 193 169 153 0
-5480 0
-397 5481 0
-399 5481 0
-427 5481 0
-432 5481 0
-454 5481 0
-459 5481 0
-466 5481 0
-494 5481 0
-502 5481 0
-503 5481 0
-513 5481 0
-524 5481 0
-525 5481 0
-527 5481 0
-5481 502 399 427 435 538 398 504 507 508 505 455 458 523 503 540 495 512 411 409 528 535 493 468 434 539 459 511 490 456 431 433 491 509 536 467 436 429 454 428 525 506 510 430 412 492 494 397 513 466 410 437 432 438 526 527 457 413 414 537 524 0
-5482 0
-1045 5483 0
-1046 5483 0
-1058 5483 0
-1061 5483 0
-1076 5483 0
-1079 5483 0
-1082 5483 0
-1085 5483 0
-1103 5483 0
-1106 5483 0
-1114 5483 0
-1115 5483 0
-1116 5483 0
-1150 5483 0
-1156 5483 0
-1157 5483 0
-1171 5483 0
-1173 5483 0
-1183 5483 0
-1185 5483 0
-5483 1171 1102 1045 1114 1172 1188 1103 1085 1116 1058 1059 1150 1115 1138 1159 1143 1187 1079 1083 1057 1152 1084 1185 1062 1140 1106 1186 1141 1157 1161 1076 1061 1184 1156 1080 1183 1151 1060 1153 1081 1105 1154 1155 1158 1046 1104 1139 1082 1142 1175 1107 1174 1086 1173 1075 1047 1078 1077 1176 1160 0
-5484 0
-1593 5485 0
-1628 5485 0
-1653 5485 0
-1662 5485 0
-1689 5485 0
-1696 5485 0
-1703 5485 0
-1705 5485 0
-5485 1688 1649 1697 1705 1698 1706 1718 1704 1608 1648 1624 1626 1653 1625 1651 1592 1684 1650 1605 1689 1696 1703 1702 1699 1593 1685 1632 1623 1722 1630 1621 1622 1607 1661 1604 1720 1628 1717 1700 1662 1603 1734 1629 1660 1652 1627 1606 1707 1719 1701 1687 1721 1591 1686 1729 1631 1730 1731 1732 1733 0
-5486 0
-5487 0
-5488 0
-5479 -5485 -5481 0
-5483 -5479 -5485 0
-5485 -5483 -5481 0
5479 5481 5483 5482 5480 5484 5486 5487 5488 0
5483 5485 5479 5480 5484 5482 5486 5487 5488 0
5485 5483 5481 5480 5484 5482 5486 5487 5488 0
-424 5491 0
-447 5491 0
-448 5491 0
-449 5491 0
-466 5491 0
-485 5491 0
-1060 5493 0
-1072 5493 0
-1116 5493 0
-1158 5493 0
-1159 5493 0
-1166 5493 0
-1592 5495 0
-1593 5495 0
-1606 5495 0
-1661 5495 0
5495 -1696 0
5495 -1697 0
-1699 5495 0
-1702 5495 0
-1704 5495 0
-1706 5495 0
-1730 5495 0
-1733 5495 0
-5495 1680 1591 1620 1701 1704 1697 1705 1703 1628 1619 1629 1608 1660 1712 1716 1641 1702 1696 1644 1715 1662 1632 1615 1706 1676 1714 1604 1642 1607 1698 1592 1734 1603 1711 1677 1593 1678 1639 1732 1605 1700 1699 1617 1606 1643 1618 1631 1707 1616 1627 1713 1630 1640 1675 1661 1730 1729 1731 1733 1679 0
5497 -2138 0
5497 -2139 0
5497 -2140 0
5497 -2142 0
5497 -2143 0
5497 -2144 0
5497 -2145 0
5497 -2151 0
5497 -2153 0
5497 -2154 0
5497 -2155 0
5497 -2156 0
5497 -2158 0
5497 -2159 0
5497 -2180 0
-5497 2169 2143 2180 2158 2159 2173 2137 2139 2184 2172 2156 2177 2152 2171 2178 2153 2154 2168 2170 2142 2181 2174 2145 2175 2141 2176 2150 2144 2149 2167 2155 2179 2157 2138 2182 2151 2140 2183 2160 0
-5493 -5495 -5491 0
-5493 -5491 -5497 0
-5493 -5495 -5497 0
-5499 0
-5500 0
-400 5501 0
-427 5501 0
-428 5501 0
-431 5501 0
-432 5501 0
-442 5501 0
-454 5501 0
-455 5501 0
-456 5501 0
-457 5501 0
-469 5501 0
-470 5501 0
-472 5501 0
-473 5501 0
-474 5501 0
-479 5501 0
-480 5501 0
-490 5501 0
-491 5501 0
-492 5501 0
-493 5501 0
-523 5501 0
-524 5501 0
-541 5501 0
-542 5501 0
-543 5501 0
-544 5501 0
-545 5501 0
-546 5501 0
-5501 490 469 416 401 441 544 444 400 459 456 523 474 541 427 528 439 478 430 429 455 477 545 543 473 479 492 454 516 471 475 472 524 428 432 420 480 431 402 476 514 491 443 493 494 495 442 440 515 458 457 542 470 527 415 417 418 419 525 526 546 0
-5502 0
-1048 5503 0
-1049 5503 0
-1050 5503 0
-1080 5503 0
-1106 5503 0
-1117 5503 0
-1118 5503 0
-1139 5503 0
-1162 5503 0
-1163 5503 0
-1172 5503 0
-1193 5503 0
-5503 1106 1048 1091 1067 1119 1089 1118 1193 1126 1194 1050 1065 1090 1127 1107 1092 1087 1174 1128 1164 1120 1075 1080 1141 1077 1143 1171 1139 1175 1190 1076 1078 1172 1104 1192 1117 1125 1176 1105 1163 1063 1122 1138 1142 1066 1103 1191 1140 1121 1049 1124 1162 1173 1088 1064 1068 1123 1102 1079 1189 0
-5504 0
-1594 5505 0
-1596 5505 0
-1609 5505 0
-1614 5505 0
-1621 5505 0
-1622 5505 0
-1624 5505 0
-1625 5505 0
-1636 5505 0
-1638 5505 0
-1649 5505 0
-1668 5505 0
-1670 5505 0
-1672 5505 0
-1674 5505 0
-1708 5505 0
-1710 5505 0
-1717 5505 0
-1738 5505 0
-1740 5505 0
-5505 1688 1667 1668 1669 1670 1664 1623 1652 1684 1648 1626 1653 1673 1672 1649 1663 1740 1686 1666 1624 1625 1685 1650 1718 1710 1595 1612 1722 1689 1594 1634 1622 1638 1621 1665 1636 1610 1687 1674 1635 1671 1637 1708 1717 1735 1614 1651 1633 1739 1709 1609 1613 1720 1611 1596 1719 1721 1736 1738 1737 0
-5506 0
-2140 5507 0
-2141 5507 0
-2142 5507 0
-2143 5507 0
-2144 5507 0
-2145 5507 0
-2146 5507 0
-2147 5507 0
-2148 5507 0
-2151 5507 0
-2152 5507 0
-2153 5507 0
-2154 5507 0
-2155 5507 0
-2156 5507 0
-2157 5507 0
-2158 5507 0
-2159 5507 0
-2160 5507 0
-2161 5507 0
-2162 5507 0
-2163 5507 0
-2164 5507 0
-2165 5507 0
-2166 5507 0
-2177 5507 0
-2178 5507 0
-2179 5507 0
-2180 5507 0
-2181 5507 0
-2182 5507 0
-5507 2151 2141 2156 2159 2158 2161 2140 2165 2145 2162 2178 2153 2184 2154 2180 2148 2143 2166 2179 2160 2177 2147 2182 2142 2164 2152 2155 2146 2163 2157 2181 2144 2183 0
-5508 0
-5503 -5505 -5501 0
-5505 -5501 -5507 0
-5505 -5503 -5507 0
5503 5501 5505 5502 5500 5504 5499 5506 5508 0
5507 5503 5505 5499 5504 5500 5506 5502 5508 0
-5509 0
-5510 0
-403 5511 0
-405 5511 0
-406 5511 0
-407 5511 0
-408 5511 0
-451 5511 0
-452 5511 0
-453 5511 0
-460 5511 0
-461 5511 0
-462 5511 0
-463 5511 0
-464 5511 0
-465 5511 0
-487 5511 0
-488 5511 0
-489 5511 0
-496 5511 0
-498 5511 0
-500 5511 0
-530 5511 0
-531 5511 0
-532 5511 0
-533 5511 0
-534 5511 0
-5511 501 403 461 496 534 407 462 408 463 500 533 452 499 531 406 498 460 464 453 497 451 529 404 530 405 488 465 487 489 532 0
-5512 0
-1051 5513 0
-1052 5513 0
-1053 5513 0
-1055 5513 0
-1056 5513 0
-1099 5513 0
-1100 5513 0
-1101 5513 0
-1108 5513 0
-1109 5513 0
-1110 5513 0
-1111 5513 0
-1112 5513 0
-1113 5513 0
-1135 5513 0
-1136 5513 0
-1137 5513 0
-1144 5513 0
-1145 5513 0
-1146 5513 0
-1147 5513 0
-1148 5513 0
-1149 5513 0
-1177 5513 0
-1178 5513 0
-1179 5513 0
-1180 5513 0
-1181 5513 0
-1182 5513 0
-5513 1135 1110 1056 1051 1146 1149 1099 1178 1137 1053 1112 1182 1179 1144 1108 1148 1055 1101 1111 1052 1136 1145 1113 1147 1100 1054 1109 1180 1177 1181 0
-5514 0
-1597 5515 0
-1598 5515 0
-1599 5515 0
-1600 5515 0
-1601 5515 0
-1602 5515 0
-1645 5515 0
-1646 5515 0
-1647 5515 0
-1654 5515 0
-1655 5515 0
-1656 5515 0
-1657 5515 0
-1658 5515 0
-1659 5515 0
-1681 5515 0
-1682 5515 0
-1683 5515 0
-1690 5515 0
-1691 5515 0
-1692 5515 0
-1693 5515 0
-1694 5515 0
-1695 5515 0
-1723 5515 0
-1724 5515 0
-1725 5515 0
-1726 5515 0
-1727 5515 0
-1728 5515 0
-5515 1683 1598 1694 1728 1691 1645 1690 1597 1647 1654 1656 1692 1658 1602 1657 1693 1655 1724 1659 1695 1601 1723 1681 1600 1682 1599 1646 1725 1727 1726 0
-5516 0
-2137 5517 0
-2138 5517 0
-2139 5517 0
-2146 5517 0
-2147 5517 0
-2148 5517 0
-2149 5517 0
-2150 5517 0
-2161 5517 0
-2162 5517 0
-2163 5517 0
-2164 5517 0
-2165 5517 0
-2166 5517 0
-2167 5517 0
-2168 5517 0
-2169 5517 0
-2170 5517 0
-2171 5517 0
-2172 5517 0
-2173 5517 0
-2174 5517 0
-2175 5517 0
-2176 5517 0
-5517 2169 2138 2148 2164 2174 2137 2162 2149 2175 2176 2172 2166 2170 2167 2146 2163 2161 2173 2147 2168 2171 2165 2139 2150 0
-5518 0
-5513 -5511 0
-5515 -5511 0
-5517 -5511 0
-5513 -5515 0
-5513 -5517 0
-5515 -5517 0
5511 5513 5515 5517 5510 5514 5509 5516 5512 5518 0
-358 5519 0
-359 5519 0
-360 5519 0
-361 5519 0
-362 5519 0
-363 5519 0
-382 5519 0
-383 5519 0
-384 5519 0
-385 5519 0
-386 5519 0
-387 5519 0
-1354 5521 0
-1355 5521 0
-1356 5521 0
5521 -1357 0
-1358 5521 0
-1359 5521 0
-1369 5521 0
-1370 5521 0
-1371 5521 0
-1372 5521 0
-1373 5521 0
-1374 5521 0
-5521 1374 1358 1371 1370 1357 1359 1354 1355 1372 1356 1373 1369 0
-1553 5523 0
-1554 5523 0
-1555 5523 0
-1556 5523 0
5523 -1557 0
-1576 5523 0
-1577 5523 0
-1578 5523 0
-1579 5523 0
-1580 5523 0
-1581 5523 0
-5523 1581 1557 1552 1555 1556 1553 1580 1576 1577 1578 1579 1554 0
5525 -1750 0
-1751 5525 0
-1752 5525 0
-1753 5525 0
-1754 5525 0
-1755 5525 0
-1765 5525 0
-1766 5525 0
-1767 5525 0
-1768 5525 0
-1769 5525 0
-1770 5525 0
-1843 5527 0
-1844 5527 0
-1845 5527 0
-1879 5527 0
-1880 5527 0
-1881 5527 0
-5519 -5527 0
-5527 -5521 0
-5527 -5523 0
-5527 -5525 0
-5529 0
-5530 0
-1345 5531 0
-1347 5531 0
-1348 5531 0
-1350 5531 0
-1360 5531 0
-1362 5531 0
-1363 5531 0
-1365 5531 0
-1375 5531 0
-1376 5531 0
-1381 5531 0
-1383 5531 0
-1386 5531 0
-1388 5531 0
-5531 1365 1347 1350 1392 1381 1352 1384 1367 1368 1376 1348 1345 1386 1379 1378 1362 1363 1346 1375 1353 1377 1385 1351 1387 1361 1383 1382 1366 1388 1380 1360 1364 1389 1390 1349 1391 0
-5532 0
-5533 0
-5534 0
-1743 5535 0
-1746 5535 0
-1784 5535 0
-5535 1771 1744 1759 1783 1746 1764 1747 1761 1779 1778 1786 1742 1785 1784 1757 1788 1787 1743 1745 1775 1749 1774 1762 1776 1773 1758 1760 1772 1781 1782 1748 1763 1780 1777 1756 1741 0
-5536 0
-1795 5537 0
-1796 5537 0
-1797 5537 0
-1798 5537 0
-1799 5537 0
-1800 5537 0
-1852 5537 0
-1853 5537 0
-1854 5537 0
-1855 5537 0
-1856 5537 0
-1857 5537 0
-1888 5537 0
-1889 5537 0
-1890 5537 0
-1891 5537 0
-1892 5537 0
-1893 5537 0
-1921 5537 0
-1922 5537 0
-1923 5537 0
-1924 5537 0
-1925 5537 0
-1926 5537 0
-5537 1903 1795 1798 1790 1927 1932 1803 1892 1921 1796 1929 1922 1856 1894 1891 1931 1799 1791 1800 1855 1888 1905 1854 1825 1801 1802 1857 1858 1859 1860 1925 1804 1805 1930 1806 1853 1852 1889 1893 1897 1898 1797 1789 1896 1899 1895 1904 1901 1826 1827 1828 1923 1829 1830 1900 1924 1926 1902 1928 1890 0
-5538 0
-5535 -5531 -5537 0
5531 5535 5529 5532 5533 5534 5530 5536 5538 0
5537 5531 5529 5532 5533 5534 5536 5530 5538 0
-352 5539 0
-355 5539 0
-364 5539 0
-365 5539 0
-369 5539 0
-372 5539 0
-373 5539 0
-374 5539 0
-375 5539 0
-379 5539 0
-380 5539 0
-381 5539 0
-393 5539 0
-394 5539 0
-5540 0
-5541 0
-5542 0
5543 -1546 0
-1551 5543 0
-1558 5543 0
5543 -1559 0
-1560 5543 0
-1561 5543 0
5543 -1562 0
5543 -1563 0
5543 -1565 0
-1566 5543 0
5543 -1568 0
-1569 5543 0
-1571 5543 0
-1572 5543 0
-1574 5543 0
-1575 5543 0
-1582 5543 0
5543 -1584 0
-5543 1585 1570 1583 1568 1563 1589 1565 1586 1571 1559 1574 1560 1575 1547 1588 1567 1544 1546 1590 1558 1564 1569 1566 1562 1551 1573 1548 1582 1584 1543 1572 1549 1587 1561 1545 1550 0
-5544 0
-5545 0
-5546 0
-1792 5547 0
-1794 5547 0
-1807 5547 0
-1808 5547 0
-1810 5547 0
-1812 5547 0
-1813 5547 0
-1814 5547 0
-1815 5547 0
-1816 5547 0
-1817 5547 0
-1818 5547 0
-1831 5547 0
-1832 5547 0
-1834 5547 0
-1836 5547 0
-1837 5547 0
-1838 5547 0
-1839 5547 0
-1840 5547 0
-1841 5547 0
-1842 5547 0
-1861 5547 0
-1864 5547 0
-1866 5547 0
-1870 5547 0
-1873 5547 0
-1874 5547 0
-1875 5547 0
-1876 5547 0
-1878 5547 0
-1906 5547 0
-1908 5547 0
-1909 5547 0
-1910 5547 0
-1911 5547 0
-1912 5547 0
-1913 5547 0
-1934 5547 0
-1936 5547 0
-5547 1868 1817 1792 1874 1876 1937 1807 1878 1871 1873 1810 1914 1933 1909 1816 1839 1906 1840 1863 1862 1934 1842 1875 1838 1818 1837 1936 1834 1793 1794 1864 1865 1938 1861 1867 1869 1870 1841 1872 1812 1877 1811 1815 1831 1813 1832 1814 1808 1833 1866 1835 1836 1935 1809 1912 1907 1908 1911 1910 1913 0
-5548 0
-5547 -5539 -5543 0
5539 5547 5541 5542 5544 5545 5546 5540 5548 0
-349 5549 0
-350 5549 0
-351 5549 0
-352 5549 0
-353 5549 0
-354 5549 0
-355 5549 0
-356 5549 0
-357 5549 0
-364 5549 0
-365 5549 0
-366 5549 0
-367 5549 0
-368 5549 0
-369 5549 0
-370 5549 0
-371 5549 0
-372 5549 0
-373 5549 0
-374 5549 0
-375 5549 0
-376 5549 0
-377 5549 0
-378 5549 0
-379 5549 0
-380 5549 0
-381 5549 0
-388 5549 0
-389 5549 0
-390 5549 0
-391 5549 0
-392 5549 0
-393 5549 0
-394 5549 0
-395 5549 0
-396 5549 0
-5550 0
-5551 0
-5552 0
-1543 5553 0
-1544 5553 0
-1545 5553 0
-1546 5553 0
-1547 5553 0
-1548 5553 0
-1549 5553 0
-1550 5553 0
-1551 5553 0
-1558 5553 0
-1559 5553 0
-1560 5553 0
-1561 5553 0
-1562 5553 0
-1563 5553 0
-1564 5553 0
-1565 5553 0
-1566 5553 0
-1567 5553 0
-1568 5553 0
-1569 5553 0
-1571 5553 0
-1572 5553 0
-1573 5553 0
-1574 5553 0
-1575 5553 0
-1582 5553 0
-1583 5553 0
-1584 5553 0
-1585 5553 0
-1586 5553 0
-1587 5553 0
-1588 5553 0
-1589 5553 0
-1590 5553 0
-5553 1585 1565 1583 1562 1568 1574 1561 1546 1560 1547 1590 1571 1582 1549 1564 1545 1586 1559 1569 1543 1589 1563 1587 1575 1558 1584 1551 1566 1548 1570 1544 1573 1572 1588 1550 1567 0
-5554 0
-5555 0
-5556 0
-1792 5557 0
-1793 5557 0
-1794 5557 0
-1795 5557 0
-1796 5557 0
-1797 5557 0
-1798 5557 0
-1799 5557 0
-1800 5557 0
-1807 5557 0
-1808 5557 0
-1809 5557 0
-1810 5557 0
-1811 5557 0
-1812 5557 0
-1831 5557 0
-1832 5557 0
-1833 5557 0
-1834 5557 0
-1835 5557 0
-1836 5557 0
-1852 5557 0
-1853 5557 0
-1854 5557 0
-1855 5557 0
-1856 5557 0
-1857 5557 0
-1861 5557 0
-1862 5557 0
-1863 5557 0
-1864 5557 0
-1865 5557 0
-1866 5557 0
-1867 5557 0
-1868 5557 0
-1869 5557 0
-1870 5557 0
-1871 5557 0
-1872 5557 0
-1888 5557 0
-1889 5557 0
-1890 5557 0
-1891 5557 0
-1892 5557 0
-1893 5557 0
-1906 5557 0
-1907 5557 0
-1908 5557 0
-1921 5557 0
-1922 5557 0
-1923 5557 0
-1924 5557 0
-1926 5557 0
-1933 5557 0
-1934 5557 0
-1935 5557 0
-1936 5557 0
-1937 5557 0
-1938 5557 0
-5557 1793 1853 1807 1810 1868 1871 1792 1872 1811 1933 1936 1935 1799 1795 1926 1925 1794 1934 1908 1891 1888 1800 1857 1852 1890 1864 1892 1856 1923 1863 1862 1865 1866 1889 1861 1869 1870 1937 1797 1921 1938 1867 1832 1812 1831 1893 1808 1855 1809 1833 1834 1922 1835 1836 1796 1798 1906 1924 1854 1907 0
-5558 0
-5549 -5553 -5557 0
5557 5549 5551 5552 5554 5555 5556 5550 5558 0
5553 5557 5552 5550 5554 5555 5556 5551 5558 0
-5559 0
-5560 0
-5561 0
-5562 0
-5563 0
-5564 0
-5565 0
-5566 0
1881 1843 1816 1837 1817 1818 1813 1814 1838 1839 1841 1815 1840 1880 1845 1873 1874 1844 1876 1877 1878 1879 1875 1842 1909 1910 1911 1912 1913 1914 -5567 0
-5568 0
5567 5560 5561 5562 5563 5564 5565 5566 5559 5568 0
-349 5569 0
-350 5569 0
-351 5569 0
-352 5569 0
-353 5569 0
-354 5569 0
-355 5569 0
-356 5569 0
-357 5569 0
-358 5569 0
-359 5569 0
-360 5569 0
-361 5569 0
-362 5569 0
-363 5569 0
-364 5569 0
-365 5569 0
-366 5569 0
-367 5569 0
-368 5569 0
-369 5569 0
-370 5569 0
-371 5569 0
-372 5569 0
-373 5569 0
5569 -374 0
-375 5569 0
-376 5569 0
-377 5569 0
-378 5569 0
-379 5569 0
-380 5569 0
-381 5569 0
-382 5569 0
-383 5569 0
-384 5569 0
-385 5569 0
-386 5569 0
-387 5569 0
-388 5569 0
-389 5569 0
-390 5569 0
-391 5569 0
-392 5569 0
-393 5569 0
-394 5569 0
-395 5569 0
-396 5569 0
-5569 358 351 364 349 370 354 356 353 359 352 355 357 360 363 361 365 366 367 368 369 362 371 372 373 374 375 376 377 378 379 380 381 382 383 384 385 386 387 388 389 390 391 392 393 394 395 396 350 0
-358 5570 0
-361 5570 0
-363 5570 0
-386 5570 0
-5570 386 359 363 382 383 362 361 358 384 360 387 385 0
-1543 5573 0
-1544 5573 0
-1545 5573 0
-1546 5573 0
-1547 5573 0
-1548 5573 0
-1549 5573 0
-1550 5573 0
-1551 5573 0
-1552 5573 0
-1553 5573 0
-1554 5573 0
-1555 5573 0
-1556 5573 0
-1557 5573 0
-1558 5573 0
-1559 5573 0
-1560 5573 0
-1561 5573 0
-1562 5573 0
-1563 5573 0
-1564 5573 0
-1565 5573 0
-1566 5573 0
-1567 5573 0
-1568 5573 0
-1569 5573 0
-1570 5573 0
-1571 5573 0
-1572 5573 0
-1573 5573 0
-1574 5573 0
-1575 5573 0
-1576 5573 0
-1577 5573 0
-1578 5573 0
-1579 5573 0
-1580 5573 0
-1581 5573 0
-1582 5573 0
-1583 5573 0
-1584 5573 0
-1585 5573 0
-1586 5573 0
-1587 5573 0
-1588 5573 0
-1589 5573 0
-1590 5573 0
5574 -1552 0
-5574 1580 1552 1581 1555 1556 1553 1557 1576 1577 1578 1579 1554 0
-1789 5577 0
-1790 5577 0
-1791 5577 0
-1801 5577 0
-1802 5577 0
-1803 5577 0
-1804 5577 0
-1805 5577 0
-1806 5577 0
-1819 5577 0
-1820 5577 0
-1821 5577 0
-1822 5577 0
-1823 5577 0
-1824 5577 0
-1825 5577 0
-1826 5577 0
-1827 5577 0
-1828 5577 0
-1829 5577 0
-1830 5577 0
-1846 5577 0
-1847 5577 0
-1848 5577 0
-1849 5577 0
-1850 5577 0
-1851 5577 0
-1858 5577 0
-1859 5577 0
-1860 5577 0
-1882 5577 0
-1883 5577 0
-1884 5577 0
-1885 5577 0
-1886 5577 0
-1887 5577 0
-1894 5577 0
-1895 5577 0
-1896 5577 0
-1897 5577 0
-1898 5577 0
-1899 5577 0
-1900 5577 0
-1901 5577 0
-1902 5577 0
-1903 5577 0
-1904 5577 0
-1905 5577 0
-1915 5577 0
-1916 5577 0
-1917 5577 0
-1918 5577 0
-1919 5577 0
-1920 5577 0
-1927 5577 0
-1928 5577 0
-1929 5577 0
-1930 5577 0
-1931 5577 0
-1932 5577 0
-5577 1884 1790 1824 1903 1791 1927 1920 1848 1929 1899 1931 1846 1932 1819 1930 1821 1825 1826 1827 1806 1830 1805 1847 1829 1849 1850 1851 1858 1859 1860 1823 1883 1820 1885 1886 1887 1882 1904 1896 1894 1898 1822 1789 1803 1804 1897 1901 1802 1905 1895 1828 1900 1917 1916 1801 1915 1918 1902 1919 1928 0
-5570 -5569 -5573 0
-5574 -5569 -5573 0
-5577 -5569 -5573 0
-5579 0
-5580 0
-1388 5581 0
-5582 0
-5583 0
-5584 0
-1743 5585 0
-1746 5585 0
-1747 5585 0
-5586 0
-1813 5587 0
-1814 5587 0
-1815 5587 0
-1816 5587 0
-1817 5587 0
-1818 5587 0
-1839 5587 0
-1840 5587 0
-1841 5587 0
-1842 5587 0
-1874 5587 0
-1875 5587 0
-1876 5587 0
-1877 5587 0
-1878 5587 0
-1910 5587 0
-1911 5587 0
-1912 5587 0
-1913 5587 0
-5587 1838 1802 1814 1903 1899 1914 1790 1896 1911 1913 1912 1874 1909 1910 1817 1932 1878 1894 1839 1875 1815 1816 1837 1841 1806 1928 1842 1905 1859 1927 1858 1825 1813 1805 1860 1804 1826 1904 1791 1897 1898 1840 1877 1901 1818 1900 1789 1895 1827 1828 1829 1830 1873 1803 1929 1930 1801 1876 1902 1931 0
-5588 0
-5581 -5585 -5587 0
5587 5581 5579 5582 5583 5584 5586 5580 5588 0
5585 5587 5582 5583 5584 5579 5586 5580 5588 0
-5589 0
-5590 0
-1367 5591 0
-1368 5591 0
-1386 5591 0
-1388 5591 0
-5591 1384 1347 1357 1386 1367 1363 1368 1385 1345 1370 1378 1391 1361 1383 1353 1364 1365 1351 1381 1379 1375 1382 1376 1350 1387 1389 1346 1377 1362 1360 1349 1348 1390 1388 1352 1380 1392 1355 1366 1374 1372 1371 1359 1369 1373 1358 1354 1356 0
-5592 1374 1358 1371 1370 1357 1359 1354 1355 1356 1372 1373 1369 0
-5593 0
-5594 0
-1743 5595 0
-1746 5595 0
-1750 5595 0
-1750 5596 0
-5596 1768 1750 1767 1765 1755 1752 1766 1751 1753 1770 1769 1754 0
-1861 5597 0
-1864 5597 0
-1866 5597 0
-1870 5597 0
-1934 5597 0
-1936 5597 0
-5597 1849 1792 1794 1807 1868 1886 1811 1810 1851 1793 1863 1933 1938 1935 1936 1917 1834 1850 1824 1846 1822 1831 1847 1820 1934 1819 1833 1862 1832 1812 1836 1835 1861 1867 1870 1823 1864 1916 1872 1882 1937 1884 1885 1918 1866 1821 1871 1865 1809 1915 1920 1887 1848 1907 1906 1869 1808 1919 1883 1908 0
-5598 0
-5591 -5596 -5595 0
-5597 -5591 -5595 0
5592 5591 5596 5597 5593 5594 5589 5590 5598 0
5595 5592 5596 5597 5594 5590 5589 5593 5598 0
-5599 0
-5600 0
-5601 0
-5602 0
-5603 0
-5604 0
-5605 0
-5606 0
1881 1889 1845 1843 1795 1797 1798 1796 1799 1800 1880 1852 1855 1853 1857 1879 1856 1854 1888 1844 1890 1891 1892 1893 1921 1922 1923 1924 1925 1926 -5607 0
-5608 0
5607 5600 5601 5602 5603 5604 5605 5606 5599 5608 0
-166 5609 0
-167 5609 0
-168 5609 0
-174 5609 0
-175 5609 0
-176 5609 0
-187 5609 0
-188 5609 0
-189 5609 0
-5609 189 176 166 167 175 187 188 168 174 0
-1081 5611 0
-1082 5611 0
-1087 5611 0
-1088 5611 0
-1093 5611 0
-1094 5611 0
-1108 5611 0
-1109 5611 0
-1119 5611 0
-1120 5611 0
-1129 5611 0
-1130 5611 0
-1144 5611 0
-1145 5611 0
-1150 5611 0
-1152 5611 0
-1153 5611 0
-1162 5611 0
-1165 5611 0
-1166 5611 0
-1177 5611 0
-1178 5611 0
-1183 5611 0
-1184 5611 0
-1189 5611 0
-1190 5611 0
-1360 5613 0
-1361 5613 0
-1362 5613 0
-1375 5613 0
-1376 5613 0
-1377 5613 0
-1378 5613 0
5613 -1379 0
-1380 5613 0
-5613 1380 1362 1377 1378 1376 1360 1375 1379 1361 0
-1558 5615 0
-1559 5615 0
-1560 5615 0
-1561 5615 0
-1562 5615 0
5615 -1563 0
-1582 5615 0
-1583 5615 0
-1584 5615 0
-5615 1584 1563 1559 1558 1583 1562 1561 1560 1582 0
-1756 5617 0
-1757 5617 0
-1758 5617 0
-1771 5617 0
5617 -1772 0
-1773 5617 0
-1774 5617 0
5617 -1775 0
-1776 5617 0
-5609 -5611 0
-5611 -5613 0
-5611 -5615 0
-5611 -5617 0
-5613 -5615 0
-5615 -5617 0
-153 5619 0
-157 5619 0
-158 5619 0
-159 5619 0
-160 5619 0
-161 5619 0
-177 5619 0
-178 5619 0
-184 5619 0
-185 5619 0
-186 5619 0
-190 5619 0
-191 5619 0
-192 5619 0
-5619 179 153 186 151 194 190 178 159 161 181 158 180 162 184 177 157 192 191 185 198 197 160 193 152 0
-5620 0
-1049 5621 0
-1051 5621 0
-1057 5621 0
-1058 5621 0
-1063 5621 0
-1064 5621 0
-1066 5621 0
-1070 5621 0
-1071 5621 0
-1072 5621 0
-1075 5621 0
-1089 5621 0
-1090 5621 0
-1102 5621 0
-1103 5621 0
-1121 5621 0
-1122 5621 0
-1124 5621 0
-1131 5621 0
-1132 5621 0
-1136 5621 0
-1138 5621 0
-1139 5621 0
-1154 5621 0
-1155 5621 0
-1157 5621 0
-1164 5621 0
-1167 5621 0
-1168 5621 0
-1171 5621 0
-1172 5621 0
-1174 5621 0
-1180 5621 0
-1185 5621 0
-1186 5621 0
-1191 5621 0
-1192 5621 0
-1193 5621 0
-1194 5621 0
-5621 1102 1045 1071 1072 1058 1154 1132 1049 1063 1136 1135 1168 1065 1138 1167 1164 1172 1157 1140 1179 1123 1051 1147 1103 1163 1095 1066 1124 1089 1090 1070 1069 1171 1122 1064 1156 1057 1169 1096 1155 1180 1185 1141 1076 1146 1191 1075 1192 1121 1048 1173 1174 1099 1170 1139 1052 1193 1131 1194 1186 0
-5622 0
-1381 5623 0
-1382 5623 0
-1383 5623 0
-1384 5623 0
-1386 5623 0
-5623 1369 1381 1386 1385 1384 1347 1372 1371 1345 1346 1383 1370 1382 1354 1355 0
-5624 0
-1544 5625 0
-1546 5625 0
-1547 5625 0
-1564 5625 0
-1566 5625 0
-1568 5625 0
-1588 5625 0
-5625 1568 1545 1546 1547 1578 1548 1589 1564 1585 1566 1567 1552 1569 1543 1544 1579 1577 1565 1586 1587 1588 1553 1590 1576 0
-5626 0
-1780 5627 0
-1781 5627 0
-5627 1780 1742 1781 1766 1777 1778 1779 1767 1782 1751 1741 1765 1743 1750 1768 0
-5628 0
-5621 -5625 -5619 0
-5621 -5627 -5619 0
-5623 -5625 -5619 0
5619 5621 5623 5625 5620 5624 5622 5626 5628 0
5619 5627 5625 5623 5624 5622 5626 5620 5628 0
5627 5623 5625 5621 5624 5622 5626 5620 5628 0
-169 5629 0
-170 5629 0
-171 5629 0
-172 5629 0
-173 5629 0
-195 5629 0
-196 5629 0
-5629 196 155 154 164 182 173 171 165 169 163 172 156 170 195 183 0
-5630 0
-1046 5631 0
-1047 5631 0
-1050 5631 0
-1053 5631 0
-1054 5631 0
-1055 5631 0
-1056 5631 0
-1059 5631 0
-1060 5631 0
-1061 5631 0
-1067 5631 0
-1068 5631 0
-1073 5631 0
-1074 5631 0
-1077 5631 0
-1079 5631 0
-1080 5631 0
-1083 5631 0
-1084 5631 0
-1086 5631 0
-1091 5631 0
-1092 5631 0
-1097 5631 0
-1098 5631 0
-1100 5631 0
-1101 5631 0
-1104 5631 0
-1105 5631 0
-1106 5631 0
-1107 5631 0
-1111 5631 0
-1112 5631 0
-1113 5631 0
-1115 5631 0
-1116 5631 0
-1126 5631 0
-1127 5631 0
-1128 5631 0
-1133 5631 0
-1134 5631 0
-1137 5631 0
-1142 5631 0
-1143 5631 0
-1148 5631 0
-1149 5631 0
-1158 5631 0
-1159 5631 0
-1161 5631 0
-1175 5631 0
-1176 5631 0
-1181 5631 0
-1182 5631 0
-1187 5631 0
-1188 5631 0
-5631 1110 1067 1106 1061 1046 1068 1055 1100 1148 1059 1188 1080 1047 1050 1158 1137 1073 1127 1074 1104 1133 1085 1086 1084 1149 1107 1098 1143 1078 1134 1091 1187 1142 1092 1111 1182 1053 1083 1060 1159 1062 1054 1097 1112 1128 1105 1079 1056 1101 1126 1125 1077 1116 1115 1113 1160 1175 1161 1176 1181 0
-5632 0
-1350 5633 0
-1352 5633 0
-1388 5633 0
1356 -5633 1363 1366 1350 1365 1368 1352 1367 1357 1388 1391 1351 1389 1364 1392 1348 1390 1359 1349 1353 1387 1374 1358 1373 0
-5634 0
-1549 5635 0
-1550 5635 0
-1551 5635 0
-1554 5635 0
-1555 5635 0
-1556 5635 0
5635 -1557 0
-1570 5635 0
-1571 5635 0
-1572 5635 0
-1573 5635 0
-1574 5635 0
-1575 5635 0
-5635 1557 1550 1573 1575 1554 1549 1571 1572 1581 1574 1570 1555 1580 1551 1556 0
-5636 0
-1744 5637 0
-1746 5637 0
-1747 5637 0
-1748 5637 0
-1749 5637 0
-1759 5637 0
-1761 5637 0
-1783 5637 0
-1784 5637 0
-1785 5637 0
-5637 1759 1749 1783 1760 1787 1770 1786 1784 1746 1745 1785 1748 1744 1761 1762 1764 1788 1747 1763 1752 1755 1753 1769 1754 0
-5638 0
-5629 -5633 -5635 0
-5631 -5633 -5635 0
-5631 -5633 -5637 0
-5631 -5637 -5635 0
-5633 -5637 -5635 0
5631 5633 5629 5635 5630 5634 5632 5636 5638 0
5631 5637 5635 5629 5634 5630 5636 5632 5638 0
5637 5635 5629 5633 5634 5632 5636 5630 5638 0
-152 5639 0
-157 5639 0
-158 5639 0
-159 5639 0
-170 5639 0
-179 5639 0
-184 5639 0
-185 5639 0
-186 5639 0
-197 5639 0
-198 5639 0
-5639 172 151 157 186 159 178 177 197 180 194 184 160 198 179 161 162 190 170 169 171 192 191 185 164 158 196 155 182 153 163 154 181 165 173 183 193 195 156 152 0
-5640 0
-1046 5641 0
-1047 5641 0
-1050 5641 0
-1053 5641 0
-1054 5641 0
-1057 5641 0
-1059 5641 0
-1063 5641 0
-1077 5641 0
-1078 5641 0
-1083 5641 0
-1084 5641 0
-1100 5641 0
-1101 5641 0
-1102 5641 0
-1104 5641 0
-1105 5641 0
-1111 5641 0
-1115 5641 0
-1116 5641 0
-1125 5641 0
-1126 5641 0
-1137 5641 0
-1158 5641 0
-1159 5641 0
-1175 5641 0
-1176 5641 0
-1182 5641 0
-1187 5641 0
-5641 1188 1054 1063 1059 1074 1110 1102 1047 1171 1116 1137 1101 1046 1069 1132 1159 1187 1053 1185 1172 1098 1126 1097 1191 1050 1060 1058 1078 1104 1192 1100 1121 1139 1158 1070 1084 1125 1111 1182 1138 1167 1154 1155 1105 1057 1073 1115 1103 1064 1083 1175 1122 1181 1131 1176 1186 1168 1077 1133 1134 0
-5642 0
-5643 0
-5644 0
-1543 5645 0
-1544 5645 0
-1545 5645 0
-1546 5645 0
-1547 5645 0
-1548 5645 0
-1549 5645 0
-1550 5645 0
-1551 5645 0
-1567 5645 0
-1568 5645 0
-1570 5645 0
-1571 5645 0
-1572 5645 0
-1573 5645 0
-1574 5645 0
-1575 5645 0
-1589 5645 0
-1590 5645 0
-5645 1557 1543 1568 1544 1547 1548 1546 1565 1551 1589 1550 1553 1555 1552 1564 1585 1566 1567 1556 1569 1570 1571 1572 1573 1574 1575 1549 1581 1576 1577 1578 1579 1545 1586 1587 1588 1554 1590 1580 0
-5646 0
-5647 0
-5648 0
-5645 -5639 -5641 0
5641 5639 5640 5642 5643 5644 5646 5647 5648 0
5645 5639 5642 5643 5644 5640 5646 5647 5648 0
5641 5645 5642 5643 5644 5640 5646 5647 5648 0
-154 5649 0
-155 5649 0
-156 5649 0
-163 5649 0
-164 5649 0
-165 5649 0
-166 5649 0
-167 5649 0
-168 5649 0
-169 5649 0
-170 5649 0
-171 5649 0
-172 5649 0
-173 5649 0
-174 5649 0
-175 5649 0
-176 5649 0
-182 5649 0
-183 5649 0
-187 5649 0
-188 5649 0
-189 5649 0
-195 5649 0
-196 5649 0
-5649 188 154 173 175 189 164 196 155 156 183 172 171 166 165 163 176 168 169 174 170 195 167 187 182 0
-1055 5651 0
-1056 5651 0
-1061 5651 0
-1062 5651 0
-1067 5651 0
-1068 5651 0
-1079 5651 0
-1080 5651 0
-1085 5651 0
-1086 5651 0
-1091 5651 0
-1092 5651 0
-1106 5651 0
-1107 5651 0
-1112 5651 0
-1113 5651 0
-1114 5651 0
-1117 5651 0
-1118 5651 0
-1127 5651 0
-1128 5651 0
-1142 5651 0
-1143 5651 0
-1148 5651 0
-1149 5651 0
-1150 5651 0
-1151 5651 0
-1160 5651 0
-1161 5651 0
-1162 5651 0
-5651 1160 1117 1127 1161 1067 1128 1092 1091 1112 1055 1143 1062 1114 1142 1068 1056 1150 1107 1085 1149 1113 1118 1079 1151 1080 1106 1086 1162 1061 1148 0
-1549 5655 0
-1550 5655 0
-1551 5655 0
5655 -1554 0
-1555 5655 0
-1556 5655 0
5655 -1557 0
-1558 5655 0
5655 -1559 0
5655 -1560 0
-1561 5655 0
5655 -1562 0
5655 -1563 0
-1570 5655 0
5655 -1571 0
-1572 5655 0
-1573 5655 0
5655 -1574 0
5655 -1575 0
-1580 5655 0
-1581 5655 0
-1582 5655 0
-1583 5655 0
5655 -1584 0
-5655 1559 1551 1556 1557 1581 1574 1562 1583 1571 1555 1563 1570 1575 1561 1582 1558 1573 1560 1572 1549 1580 1584 1550 1554 0
-5649 -5651 0
-5649 -5655 0
-5651 -5655 0
-152 5659 0
-157 5659 0
-159 5659 0
-161 5659 0
-166 5659 0
-167 5659 0
-168 5659 0
-176 5659 0
-178 5659 0
-180 5659 0
-184 5659 0
-186 5659 0
-197 5659 0
-198 5659 0
-5659 175 151 157 159 194 185 186 178 181 187 184 188 179 189 160 161 177 162 192 190 191 180 174 176 168 167 197 158 193 198 153 166 152 0
-5660 0
-1048 5661 0
-1049 5661 0
-1072 5661 0
-1088 5661 0
-1090 5661 0
-1096 5661 0
-1099 5661 0
-1109 5661 0
-1124 5661 0
-1135 5661 0
-1136 5661 0
-1140 5661 0
-1141 5661 0
-1146 5661 0
-1163 5661 0
-1164 5661 0
-1169 5661 0
-1170 5661 0
-1174 5661 0
-1194 5661 0
-5661 1120 1045 1051 1152 1119 1163 1093 1170 1124 1090 1179 1109 1178 1071 1065 1048 1135 1164 1094 1145 1108 1129 1144 1066 1136 1072 1088 1095 1147 1096 1082 1099 1169 1194 1052 1146 1156 1190 1049 1193 1075 1165 1174 1130 1089 1087 1141 1166 1157 1189 1173 1076 1081 1123 1177 1153 1183 1184 1180 1140 0
-5662 0
-5663 0
-5664 0
-1543 5665 0
-1544 5665 0
-1545 5665 0
-1546 5665 0
-1547 5665 0
-1548 5665 0
-1558 5665 0
-1559 5665 0
-1560 5665 0
-1561 5665 0
-1562 5665 0
-1563 5665 0
-1564 5665 0
-1565 5665 0
-1566 5665 0
-1567 5665 0
-1568 5665 0
-1569 5665 0
-1582 5665 0
-1583 5665 0
-1589 5665 0
-1590 5665 0
-5665 1565 1544 1578 1585 1547 1548 1568 1543 1561 1560 1552 1559 1563 1564 1546 1566 1567 1562 1569 1558 1579 1553 1577 1582 1583 1545 1584 1586 1587 1588 1589 1590 1576 0
-5666 0
-5667 0
-5668 0
-5661 -5665 -5659 0
5661 5659 5660 5662 5663 5664 5666 5667 5668 0
5659 5665 5662 5663 5664 5660 5666 5667 5668 0
5661 5665 5662 5663 5664 5660 5666 5667 5668 0
-5669 0
-5670 0
-1045 5671 0
-1048 5671 0
-1049 5671 0
-1051 5671 0
-1052 5671 0
-1055 5671 0
-1056 5671 0
-1061 5671 0
-1062 5671 0
-1066 5671 0
-1067 5671 0
-1068 5671 0
-1071 5671 0
-1072 5671 0
-1075 5671 0
-1076 5671 0
-1079 5671 0
-1080 5671 0
-1085 5671 0
-1086 5671 0
-1090 5671 0
-1091 5671 0
-1092 5671 0
-1095 5671 0
-1096 5671 0
-1099 5671 0
-1106 5671 0
-1107 5671 0
-1113 5671 0
-1123 5671 0
-1124 5671 0
-1127 5671 0
-1128 5671 0
-1135 5671 0
-1136 5671 0
-1141 5671 0
-1142 5671 0
-1143 5671 0
-1146 5671 0
-1147 5671 0
-1148 5671 0
-1149 5671 0
-1156 5671 0
-1157 5671 0
-1160 5671 0
-1161 5671 0
-1163 5671 0
-1164 5671 0
-1169 5671 0
-1170 5671 0
-1173 5671 0
-1174 5671 0
-1180 5671 0
-1193 5671 0
-1194 5671 0
-5671 1164 1045 1061 1065 1149 1090 1163 1091 1127 1052 1106 1170 1169 1089 1135 1124 1055 1099 1049 1140 1071 1051 1142 1075 1157 1095 1056 1107 1092 1068 1146 1076 1147 1136 1096 1180 1048 1066 1072 1193 1080 1113 1123 1148 1086 1143 1173 1062 1128 1156 1079 1067 1112 1085 1141 1194 1160 1174 1179 1161 0
-5672 0
-1346 5673 0
-1347 5673 0
-1350 5673 0
-1352 5673 0
-1353 5673 0
-1355 5673 0
-1357 5673 0
-1366 5673 0
-1367 5673 0
-1370 5673 0
-1382 5673 0
-1383 5673 0
-1386 5673 0
-1388 5673 0
-1391 5673 0
-5673 1356 1386 1367 1350 1351 1363 1365 1368 1384 1352 1383 1355 1347 1345 1366 1364 1381 1385 1357 1346 1387 1388 1371 1389 1370 1390 1349 1348 1353 1374 1382 1392 1358 1391 1354 1359 1369 1372 1373 0
-5674 0
-5675 0
-5676 0
-1741 5677 0
-1742 5677 0
-1743 5677 0
-1744 5677 0
-1745 5677 0
-1746 5677 0
-1747 5677 0
-1748 5677 0
-1749 5677 0
-1752 5677 0
-1753 5677 0
-1754 5677 0
-1755 5677 0
-1759 5677 0
-1760 5677 0
-1761 5677 0
-1762 5677 0
-1763 5677 0
-1764 5677 0
-1769 5677 0
-1770 5677 0
-1777 5677 0
-1778 5677 0
-1779 5677 0
-1780 5677 0
-1781 5677 0
-1782 5677 0
-1783 5677 0
-1784 5677 0
-1785 5677 0
-1786 5677 0
-1787 5677 0
-1788 5677 0
-5677 1759 1744 1783 1760 1763 1784 1765 1787 1761 1767 1745 1786 1777 1748 1741 1762 1747 1746 1782 1749 1742 1778 1743 1785 1751 1781 1788 1779 1780 1752 1753 1764 1755 1754 1766 1750 1768 1769 1770 0
-5678 0
-5671 -5673 -5677 0
5673 5671 5669 5672 5670 5674 5675 5676 5678 0
5677 5671 5669 5672 5674 5675 5676 5670 5678 0
5673 5677 5672 5669 5674 5675 5676 5670 5678 0
-5679 0
-5680 0
-1046 5681 0
-1059 5681 0
-1060 5681 0
-1082 5681 0
-1088 5681 0
-1093 5681 0
-1100 5681 0
-1101 5681 0
-1116 5681 0
-1181 5681 0
-5681 1082 1059 1119 1120 1116 1126 1110 1137 1165 1053 1046 1100 1073 1188 1129 1060 1084 1178 1115 1098 1187 1166 1094 1054 1074 1159 1108 1153 1177 1083 1190 1088 1130 1109 1144 1078 1104 1158 1097 1134 1050 1077 1093 1081 1105 1152 1125 1145 1133 1175 1087 1176 1189 1181 1182 1101 1183 1111 1047 1184 0
-5682 0
-1350 5683 0
-1364 5683 0
-1365 5683 0
-1367 5683 0
-1375 5683 0
-1388 5683 0
-1389 5683 0
-1391 5683 0
-5683 1364 1350 1376 1367 1368 1359 1356 1374 1352 1358 1388 1379 1389 1361 1378 1387 1353 1363 1351 1360 1362 1349 1390 1391 1365 1392 1375 1380 1377 1348 1366 1357 1373 0
-5684 0
-5685 0
-5686 0
-1744 5687 0
-1756 5687 0
-1757 5687 0
-1758 5687 0
-1759 5687 0
-1762 5687 0
-1763 5687 0
-1764 5687 0
-1771 5687 0
-1772 5687 0
-1773 5687 0
-1774 5687 0
-1775 5687 0
-1776 5687 0
-5687 1759 1746 1772 1783 1787 1770 1757 1748 1775 1771 1756 1763 1788 1786 1784 1762 1764 1745 1749 1773 1774 1760 1776 1785 1747 1758 1761 1744 1753 1754 1752 1769 1755 0
-5688 0
-5683 -5687 -5681 0
5681 5683 5679 5682 5680 5684 5685 5686 5688 0
5687 5681 5679 5682 5684 5685 5686 5680 5688 0
5687 5683 5682 5679 5684 5685 5686 5680 5688 0
-5689 0
-5690 0
-1057 5691 0
-1058 5691 0
-1063 5691 0
-1064 5691 0
-1069 5691 0
-1070 5691 0
-1102 5691 0
-1103 5691 0
-1114 5691 0
-1117 5691 0
-1118 5691 0
-1122 5691 0
-1131 5691 0
-1132 5691 0
-1138 5691 0
-1139 5691 0
-1150 5691 0
-1151 5691 0
-1155 5691 0
-1162 5691 0
-1167 5691 0
-1168 5691 0
-1171 5691 0
-1172 5691 0
-1185 5691 0
-1186 5691 0
-1191 5691 0
-1192 5691 0
-5691 1171 1117 1058 1191 1192 1122 1102 1168 1069 1162 1114 1150 1131 1132 1154 1057 1186 1139 1167 1121 1155 1070 1138 1185 1103 1172 1063 1064 1118 1151 0
-5692 0
-1345 5693 0
-1346 5693 0
-1347 5693 0
-1354 5693 0
-1355 5693 0
-1360 5693 0
-1361 5693 0
-1362 5693 0
-1370 5693 0
-1372 5693 0
-1375 5693 0
-1376 5693 0
-1377 5693 0
-1378 5693 0
-1379 5693 0
-1380 5693 0
-1381 5693 0
-1382 5693 0
-1383 5693 0
-1384 5693 0
-1385 5693 0
-1386 5693 0
-5693 1355 1378 1376 1381 1370 1345 1383 1346 1384 1379 1377 1380 1347 1360 1386 1375 1385 1361 1362 1372 1369 1371 1382 1354 0
-5694 0
-5695 0
-5696 0
-1741 5697 0
-1742 5697 0
-1743 5697 0
-1750 5697 0
-1751 5697 0
-1756 5697 0
-1757 5697 0
-1758 5697 0
-1765 5697 0
-1768 5697 0
-1771 5697 0
-1772 5697 0
-1773 5697 0
-1774 5697 0
-1775 5697 0
-1776 5697 0
-1777 5697 0
-1778 5697 0
-1779 5697 0
-1780 5697 0
-1781 5697 0
-1782 5697 0
-5697 1756 1743 1772 1771 1775 1777 1780 1750 1765 1774 1757 1758 1778 1776 1782 1742 1773 1781 1779 1751 1767 1766 1741 1768 0
-5698 0
-5691 -5693 0
-5691 -5697 0
-5693 -5697 0
5693 5691 5697 5692 5690 5694 5695 5696 5689 5698 0
-364 5699 0
-365 5699 0
-366 5699 0
-367 5699 0
-368 5699 0
-369 5699 0
-388 5699 0
-389 5699 0
-390 5699 0
-5699 388 369 364 368 365 390 367 366 389 0
-433 5701 0
-434 5701 0
-439 5701 0
-440 5701 0
-445 5701 0
-446 5701 0
-460 5701 0
-461 5701 0
-466 5701 0
5701 -469 0
-470 5701 0
-472 5701 0
-481 5701 0
-482 5701 0
-497 5701 0
5701 -502 0
-505 5701 0
-517 5701 0
-529 5701 0
-530 5701 0
-535 5701 0
-536 5701 0
-541 5701 0
-542 5701 0
-5701 503 470 514 518 502 461 529 541 440 542 472 446 481 434 482 471 439 504 460 497 505 496 517 469 466 433 535 536 530 445 0
-1627 5703 0
-1628 5703 0
-1633 5703 0
-1634 5703 0
-1639 5703 0
-1654 5703 0
-1660 5703 0
-1663 5703 0
-1664 5703 0
-1666 5703 0
-1675 5703 0
-1676 5703 0
-1690 5703 0
-1691 5703 0
-1696 5703 0
-1697 5703 0
-1698 5703 0
-1699 5703 0
-1708 5703 0
-1711 5703 0
-1712 5703 0
-1723 5703 0
-1724 5703 0
-1729 5703 0
-1730 5703 0
-1735 5703 0
-1736 5703 0
-5703 1696 1628 1736 1660 1697 1666 1665 1711 1724 1691 1675 1654 1634 1640 1627 1708 1663 1655 1633 1639 1699 1698 1712 1676 1723 1690 1729 1730 1735 1664 0
-1831 5705 0
-1837 5705 0
-1852 5705 0
-1853 5705 0
-1861 5705 0
-1862 5705 0
-1863 5705 0
-1873 5705 0
-1888 5705 0
-1889 5705 0
-1909 5705 0
-1921 5705 0
-1922 5705 0
-5705 1895 1853 1862 1921 1825 1831 1927 1928 1933 1864 1909 1889 1874 1896 1837 1922 1838 1906 1897 1894 1873 1934 1858 1861 1852 1863 1888 1826 1832 1910 0
-2151 5707 0
-2152 5707 0
-2153 5707 0
-2167 5707 0
-2168 5707 0
-2169 5707 0
-2177 5707 0
-2178 5707 0
-2179 5707 0
-5707 2167 2152 2179 2153 2169 2178 2177 2168 2151 0
-5699 -5701 0
-5703 -5699 0
-5705 -5699 0
-5707 -5699 0
-5703 -5701 0
-5705 -5701 0
-5707 -5701 0
-5703 -5705 0
-5707 -5703 0
-5705 -5707 0
-349 5709 0
-350 5709 0
-351 5709 0
-352 5709 0
-353 5709 0
-354 5709 0
-370 5709 0
-371 5709 0
-372 5709 0
-373 5709 0
-374 5709 0
-375 5709 0
-391 5709 0
-393 5709 0
-394 5709 0
-395 5709 0
-396 5709 0
-5709 382 370 353 374 352 384 358 349 393 350 372 373 391 375 351 383 354 359 392 385 394 395 396 371 0
-5710 0
-397 5711 0
-400 5711 0
-401 5711 0
-409 5711 0
-410 5711 0
-415 5711 0
-416 5711 0
-421 5711 0
-422 5711 0
-427 5711 0
-428 5711 0
-441 5711 0
-442 5711 0
-447 5711 0
-448 5711 0
-454 5711 0
-455 5711 0
-475 5711 0
-476 5711 0
-483 5711 0
-484 5711 0
-487 5711 0
-488 5711 0
-492 5711 0
-493 5711 0
-498 5711 0
-499 5711 0
-508 5711 0
-509 5711 0
-515 5711 0
-516 5711 0
-520 5711 0
-521 5711 0
-522 5711 0
-523 5711 0
-524 5711 0
-525 5711 0
-526 5711 0
-531 5711 0
-532 5711 0
-537 5711 0
-538 5711 0
-543 5711 0
-544 5711 0
-545 5711 0
-546 5711 0
-5711 487 474 509 441 448 532 397 424 428 400 447 516 525 544 483 508 490 507 442 401 417 455 506 416 421 427 484 476 473 404 475 499 488 403 523 418 522 454 410 423 491 493 498 537 543 520 492 422 451 409 521 546 515 531 526 524 519 415 538 545 0
-5712 0
-1591 5713 0
-1594 5713 0
-1595 5713 0
-1597 5713 0
-1598 5713 0
-1609 5713 0
-1611 5713 0
-1615 5713 0
-1616 5713 0
-1617 5713 0
-1618 5713 0
-1621 5713 0
-1641 5713 0
-1645 5713 0
-1669 5713 0
-1670 5713 0
-1678 5713 0
-1681 5713 0
-1682 5713 0
-1684 5713 0
-1685 5713 0
-1687 5713 0
-1692 5713 0
-1702 5713 0
-1703 5713 0
-1709 5713 0
-1710 5713 0
-1714 5713 0
-1717 5713 0
-1718 5713 0
-1719 5713 0
-1720 5713 0
-1725 5713 0
-1726 5713 0
-1740 5713 0
-5713 1687 1645 1667 1668 1591 1726 1740 1702 1701 1719 1678 1703 1617 1649 1670 1609 1686 1717 1648 1611 1737 1718 1595 1692 1612 1636 1642 1685 1598 1716 1682 1681 1641 1621 1603 1710 1684 1622 1700 1597 1693 1635 1713 1669 1677 1610 1604 1709 1618 1714 1594 1720 1715 1615 1725 1731 1732 1738 1739 1616 0
-5714 0
-1843 5715 0
-1879 5715 0
-1880 5715 0
-5715 1879 1802 1868 1875 1793 1938 1882 1876 1795 1789 1880 1815 1865 1935 1796 1819 1820 1846 1813 1915 1930 1807 1847 1839 1866 1840 1867 1843 1814 1833 1792 1907 1883 1884 1916 1890 1809 1891 1810 1924 1808 1834 1801 1816 1912 1898 1914 1899 1908 1917 1918 1923 1901 1911 1900 1929 1913 1936 1937 1885 0
-5716 0
-2140 5717 0
-2141 5717 0
-2142 5717 0
-2154 5717 0
-2155 5717 0
-2161 5717 0
-2162 5717 0
-2163 5717 0
-2170 5717 0
-2171 5717 0
-2180 5717 0
-2181 5717 0
-2182 5717 0
-2183 5717 0
-2184 5717 0
-5717 2171 2141 2154 2182 2162 2163 2180 2140 2183 2181 2155 2170 2161 2184 2142 0
-5718 0
-5713 -5709 -5711 0
-5715 -5709 -5711 0
-5713 -5709 -5715 0
-5713 -5709 -5717 0
-5715 -5709 -5717 0
-5715 -5713 -5711 0
-5715 -5711 -5717 0
-5713 -5715 -5717 0
5709 5711 5715 5717 5714 5710 5716 5712 5718 0
5713 5709 5715 5717 5714 5712 5716 5710 5718 0
-355 5719 0
-356 5719 0
-357 5719 0
-376 5719 0
-377 5719 0
-378 5719 0
-379 5719 0
-380 5719 0
-381 5719 0
-5719 386 377 355 363 379 380 381 356 376 360 387 357 362 378 361 0
-5720 0
-398 5721 0
-407 5721 0
-408 5721 0
-431 5721 0
-432 5721 0
-436 5721 0
-443 5721 0
-444 5721 0
-452 5721 0
-477 5721 0
-478 5721 0
-485 5721 0
-486 5721 0
-494 5721 0
-495 5721 0
-500 5721 0
-510 5721 0
-511 5721 0
-512 5721 0
-513 5721 0
-533 5721 0
-539 5721 0
-540 5721 0
-5721 501 453 435 452 485 495 406 398 534 527 462 540 425 412 456 479 500 486 399 450 444 420 449 512 539 467 436 430 477 413 414 464 432 458 459 431 429 407 457 463 411 465 494 402 426 419 408 438 511 405 489 478 510 480 437 443 528 468 533 513 0
-5722 0
-1592 5723 0
-1593 5723 0
-1596 5723 0
-1599 5723 0
-1600 5723 0
-1601 5723 0
-1606 5723 0
-1608 5723 0
-1614 5723 0
-1619 5723 0
-1620 5723 0
-1623 5723 0
-1624 5723 0
-1625 5723 0
-1630 5723 0
-1638 5723 0
-1643 5723 0
-1646 5723 0
-1647 5723 0
-1650 5723 0
-1652 5723 0
-1653 5723 0
-1656 5723 0
-1658 5723 0
-1659 5723 0
-1661 5723 0
-1662 5723 0
-1671 5723 0
-1672 5723 0
-1673 5723 0
-1679 5723 0
-1683 5723 0
-1688 5723 0
-1689 5723 0
-1695 5723 0
-1704 5723 0
-1705 5723 0
-1721 5723 0
-1722 5723 0
-1727 5723 0
-5723 1647 1592 1601 1599 1705 1688 1680 1643 1646 1672 1626 1704 1734 1619 1656 1629 1652 1620 1659 1653 1637 1624 1683 1689 1614 1650 1607 1657 1706 1694 1602 1632 1674 1695 1625 1600 1661 1671 1596 1608 1673 1630 1606 1638 1679 1722 1651 1662 1727 1644 1613 1605 1728 1593 1658 1631 1721 1707 1623 1733 0
-5724 0
-1797 5725 0
-1844 5725 0
-1845 5725 0
-1881 5725 0
-1892 5725 0
-1925 5725 0
-5725 1881 1845 1799 1797 1925 1791 1851 1828 1860 1849 1854 1931 1932 1905 1893 1790 1811 1919 1878 1877 1856 1887 1850 1855 1842 1920 1835 1836 1824 1829 1817 1818 1848 1806 1830 1812 1857 1859 1841 1869 1870 1871 1872 1800 1804 1821 1892 1886 1822 1823 1798 1844 1794 1803 1904 1926 1805 1827 1903 1902 0
-5726 0
-2137 5727 0
-2138 5727 0
-2139 5727 0
-2143 5727 0
-2144 5727 0
-2145 5727 0
-2146 5727 0
-2147 5727 0
-2148 5727 0
-2149 5727 0
-2150 5727 0
-2156 5727 0
-2157 5727 0
-2158 5727 0
-2159 5727 0
-2160 5727 0
-2164 5727 0
-2165 5727 0
-2166 5727 0
-2172 5727 0
-2173 5727 0
-2174 5727 0
-2175 5727 0
-2176 5727 0
-5727 2158 2137 2147 2146 2160 2176 2164 2145 2144 2166 2149 2174 2172 2156 2173 2143 2159 2150 2139 2175 2157 2165 2138 2148 0
-5728 0
-5719 -5721 -5725 0
-5719 -5723 -5725 0
-5719 -5723 -5727 0
-5719 -5727 -5725 0
-5723 -5721 -5725 0
-5723 -5727 -5721 0
-5727 -5721 -5725 0
-5723 -5727 -5725 0
5721 5719 5723 5725 5720 5724 5722 5726 5728 0
5721 5727 5723 5719 5720 5724 5726 5722 5728 0
5719 5727 5721 5725 5724 5720 5726 5722 5728 0
5719 5727 5723 5725 5724 5722 5726 5720 5728 0
5727 5725 5721 5723 5724 5722 5726 5720 5728 0
-352 5729 0
-353 5729 0
-354 5729 0
-355 5729 0
-358 5729 0
-359 5729 0
-362 5729 0
-363 5729 0
-370 5729 0
-371 5729 0
-372 5729 0
-373 5729 0
-374 5729 0
-375 5729 0
-376 5729 0
-377 5729 0
-378 5729 0
-381 5729 0
-384 5729 0
-385 5729 0
-391 5729 0
-392 5729 0
-393 5729 0
-394 5729 0
-5729 358 353 393 352 349 386 391 354 359 355 351 356 357 362 363 370 360 372 373 374 375 376 377 378 350 379 381 380 383 384 385 361 387 382 392 394 395 396 371 0
-5730 0
-398 5731 0
-399 5731 0
-402 5731 0
-405 5731 0
-406 5731 0
-409 5731 0
-410 5731 0
-411 5731 0
-412 5731 0
-415 5731 0
-416 5731 0
-421 5731 0
-422 5731 0
-425 5731 0
-426 5731 0
-429 5731 0
-430 5731 0
-435 5731 0
-436 5731 0
-449 5731 0
-450 5731 0
-452 5731 0
-453 5731 0
-454 5731 0
-456 5731 0
-462 5731 0
-463 5731 0
-473 5731 0
-474 5731 0
-477 5731 0
-478 5731 0
-489 5731 0
-490 5731 0
-491 5731 0
-506 5731 0
-507 5731 0
-510 5731 0
-511 5731 0
-519 5731 0
-520 5731 0
-523 5731 0
-524 5731 0
-527 5731 0
-528 5731 0
-533 5731 0
-534 5731 0
-537 5731 0
-538 5731 0
-539 5731 0
-540 5731 0
-543 5731 0
-544 5731 0
-5731 490 477 435 478 537 453 485 421 544 430 450 399 457 462 412 474 436 406 409 402 510 527 411 473 452 415 456 429 507 410 539 398 524 422 483 533 484 489 511 455 405 491 426 463 468 486 506 467 528 523 520 449 416 454 425 519 534 540 538 543 0
-5732 0
-1592 5733 0
-1593 5733 0
-1596 5733 0
-1599 5733 0
-1606 5733 0
-1609 5733 0
-1615 5733 0
-1620 5733 0
-1623 5733 0
-1624 5733 0
-1630 5733 0
-1643 5733 0
-1646 5733 0
-1649 5733 0
-1650 5733 0
-1656 5733 0
-1662 5733 0
-1668 5733 0
-1672 5733 0
-1677 5733 0
-1678 5733 0
-1680 5733 0
-1683 5733 0
-1684 5733 0
-1701 5733 0
-1704 5733 0
-1705 5733 0
-1713 5733 0
-1714 5733 0
-1717 5733 0
-1718 5733 0
-1721 5733 0
-1722 5733 0
-1727 5733 0
-1728 5733 0
-1731 5733 0
-1732 5733 0
-1733 5733 0
-1734 5733 0
-1737 5733 0
-1738 5733 0
-5733 1705 1629 1680 1667 1593 1728 1678 1683 1619 1646 1668 1603 1624 1651 1717 1616 1701 1592 1685 1650 1713 1648 1657 1677 1649 1606 1679 1620 1643 1615 1610 1599 1704 1672 1714 1609 1727 1661 1718 1605 1647 1662 1738 1722 1604 1630 1656 1737 1600 1596 1684 1671 1721 1644 1700 1731 1732 1733 1623 1734 0
-5734 0
-1844 5735 0
-1845 5735 0
-1881 5735 0
-5735 1881 1790 1814 1802 1797 1845 1860 1936 1849 1935 1855 1882 1877 1827 1929 1878 1854 1844 1859 1875 1791 1848 1818 1817 1847 1876 1813 1932 1808 1807 1912 1865 1866 1869 1842 1804 1798 1801 1841 1822 1902 1883 1898 1899 1794 1821 1870 1828 1903 1916 1911 1920 1846 1803 1915 1925 1926 1930 1919 1931 0
-5736 0
-5737 0
-5738 0
-5729 -5733 -5731 0
-5729 -5731 -5735 0
-5733 -5729 -5735 0
-5733 -5731 -5735 0
5729 5731 5733 5732 5730 5734 5736 5737 5738 0
5729 5735 5733 5730 5734 5732 5736 5737 5738 0
5735 5733 5731 5730 5734 5732 5736 5737 5738 0
-355 5739 0
-356 5739 0
-357 5739 0
-364 5739 0
-365 5739 0
-366 5739 0
-367 5739 0
-368 5739 0
-369 5739 0
-376 5739 0
-377 5739 0
-378 5739 0
-379 5739 0
-380 5739 0
-381 5739 0
-388 5739 0
-389 5739 0
-390 5739 0
-5739 388 378 365 381 360 363 355 387 369 368 362 364 356 367 366 377 379 390 380 357 386 361 376 389 0
-5740 0
-407 5741 0
-408 5741 0
-413 5741 0
-414 5741 0
-419 5741 0
-420 5741 0
-431 5741 0
-432 5741 0
-437 5741 0
-438 5741 0
-443 5741 0
-444 5741 0
-458 5741 0
-459 5741 0
-464 5741 0
-465 5741 0
-469 5741 0
-470 5741 0
-479 5741 0
-494 5741 0
-495 5741 0
-501 5741 0
-502 5741 0
-503 5741 0
-513 5741 0
-514 5741 0
-5741 503 469 437 502 495 479 513 407 465 408 458 512 432 494 438 466 413 419 420 464 444 459 500 501 470 414 431 443 480 514 0
-5742 0
-1601 5743 0
-1602 5743 0
-1607 5743 0
-1608 5743 0
-1613 5743 0
-1614 5743 0
-1625 5743 0
-1626 5743 0
-1632 5743 0
-1637 5743 0
-1652 5743 0
-1653 5743 0
-1658 5743 0
-1659 5743 0
-1660 5743 0
-1663 5743 0
-1664 5743 0
-1674 5743 0
-1689 5743 0
-1694 5743 0
-1696 5743 0
-1697 5743 0
-1708 5743 0
-5743 1688 1663 1697 1708 1652 1695 1664 1694 1614 1658 1696 1674 1602 1659 1625 1601 1689 1613 1638 1653 1632 1631 1707 1608 1706 1637 1607 1660 1673 1626 0
-5744 0
-1799 5745 0
-1800 5745 0
-1806 5745 0
-1811 5745 0
-1851 5745 0
-1856 5745 0
-1857 5745 0
-1872 5745 0
-1887 5745 0
-1892 5745 0
-1904 5745 0
-5745 1895 1799 1872 1806 1905 1850 1871 1858 1851 1830 1800 1906 1811 1805 1862 1857 1856 1893 1892 1886 1861 1824 1829 1835 1904 1894 1887 1823 1812 1836 0
-5746 0
-5747 0
-5748 0
-5739 -5741 0
-5743 -5739 0
-5745 -5739 0
-5743 -5741 0
-5745 -5741 0
-5745 -5743 0
5739 5741 5743 5745 5740 5744 5742 5746 5747 5748 0
-350 5749 0
-351 5749 0
-352 5749 0
-353 5749 0
-354 5749 0
-364 5749 0
-365 5749 0
-366 5749 0
-367 5749 0
-368 5749 0
-369 5749 0
-370 5749 0
-371 5749 0
-372 5749 0
-373 5749 0
-374 5749 0
-375 5749 0
-388 5749 0
-389 5749 0
-390 5749 0
-391 5749 0
-392 5749 0
-393 5749 0
-395 5749 0
-396 5749 0
-5749 385 372 349 354 369 374 393 351 364 365 366 367 388 382 370 350 353 373 368 375 352 383 384 359 392 389 390 391 358 394 395 396 371 0
-5750 0
-400 5751 0
-404 5751 0
-423 5751 0
-433 5751 0
-434 5751 0
-439 5751 0
-440 5751 0
-442 5751 0
-445 5751 0
-446 5751 0
-451 5751 0
-482 5751 0
-487 5751 0
-488 5751 0
-492 5751 0
-493 5751 0
-496 5751 0
-497 5751 0
-498 5751 0
-499 5751 0
-504 5751 0
-508 5751 0
-509 5751 0
-515 5751 0
-516 5751 0
-517 5751 0
-518 5751 0
-521 5751 0
-522 5751 0
-529 5751 0
-530 5751 0
-541 5751 0
-5751 541 441 496 509 522 542 400 397 427 418 403 439 471 516 481 488 498 428 442 445 460 532 546 475 499 504 530 447 423 448 461 482 434 476 404 487 531 433 472 529 446 417 493 505 492 508 424 517 451 526 440 497 515 518 521 401 536 525 535 545 0
-5752 0
-1591 5753 0
-1594 5753 0
-1595 5753 0
-1598 5753 0
-1611 5753 0
-1617 5753 0
-1618 5753 0
-1628 5753 0
-1639 5753 0
-1640 5753 0
-1641 5753 0
-1642 5753 0
-1645 5753 0
-1654 5753 0
-1670 5753 0
-1675 5753 0
-1676 5753 0
-1681 5753 0
-1682 5753 0
-1686 5753 0
-1687 5753 0
-1690 5753 0
-1691 5753 0
-1692 5753 0
-1709 5753 0
-1710 5753 0
-1711 5753 0
-1712 5753 0
-1715 5753 0
-1716 5753 0
-1719 5753 0
-1723 5753 0
-1724 5753 0
-1725 5753 0
-1739 5753 0
-5753 1675 1594 1640 1645 1591 1702 1670 1654 1617 1655 1627 1669 1703 1687 1628 1676 1686 1692 1710 1729 1715 1681 1597 1712 1665 1691 1711 1641 1595 1690 1618 1633 1716 1739 1612 1709 1666 1621 1698 1699 1693 1740 1736 1622 1635 1724 1735 1634 1642 1639 1636 1682 1723 1726 1719 1730 1598 1725 1611 1720 0
-5754 0
-1843 5755 0
-1879 5755 0
-1880 5755 0
-5755 1884 1853 1868 1840 1938 1796 1888 1810 1831 1863 1879 1913 1820 1826 1928 1873 1933 1793 1815 1839 1880 1852 1825 1837 1864 1867 1843 1789 1874 1927 1795 1907 1819 1900 1910 1890 1889 1832 1921 1897 1896 1792 1891 1924 1816 1838 1914 1917 1918 1833 1909 1923 1809 1834 1922 1908 1901 1934 1937 1885 0
-5756 0
-5757 0
-5758 0
-5753 -5749 -5751 0
-5755 -5749 -5751 0
-5753 -5749 -5755 0
-5755 -5753 -5751 0
5753 5749 5755 5750 5754 5752 5756 5757 5758 0
5751 5753 5755 5750 5754 5752 5756 5757 5758 0
-5759 0
-5760 0
-397 5761 0
-400 5761 0
-401 5761 0
-403 5761 0
-404 5761 0
-407 5761 0
-408 5761 0
-413 5761 0
-414 5761 0
-419 5761 0
-420 5761 0
-423 5761 0
-424 5761 0
-427 5761 0
-428 5761 0
-431 5761 0
-437 5761 0
-441 5761 0
-442 5761 0
-447 5761 0
-448 5761 0
-451 5761 0
-458 5761 0
-459 5761 0
-475 5761 0
-476 5761 0
-479 5761 0
-480 5761 0
-487 5761 0
-488 5761 0
-499 5761 0
-508 5761 0
-509 5761 0
-512 5761 0
-513 5761 0
-516 5761 0
-521 5761 0
-522 5761 0
-525 5761 0
-526 5761 0
-531 5761 0
-532 5761 0
-546 5761 0
-5761 532 403 407 501 442 495 408 400 531 448 418 480 397 413 487 498 459 522 447 493 444 546 500 428 451 423 431 525 419 414 420 465 509 464 512 424 427 479 438 475 499 404 494 516 401 437 508 526 476 432 443 417 492 441 458 488 515 513 521 545 0
-5762 0
-1591 5763 0
-1594 5763 0
-1595 5763 0
-1598 5763 0
-1602 5763 0
-1613 5763 0
-1618 5763 0
-1621 5763 0
-1626 5763 0
-1653 5763 0
-1670 5763 0
-1681 5763 0
-1682 5763 0
-1686 5763 0
-1687 5763 0
-1688 5763 0
-1692 5763 0
-1694 5763 0
-1702 5763 0
-1703 5763 0
-1709 5763 0
-1710 5763 0
-5763 1702 1602 1688 1652 1670 1594 1673 1681 1626 1686 1632 1692 1611 1703 1641 1636 1653 1694 1669 1645 1631 1618 1601 1622 1607 1715 1709 1674 1621 1614 1695 1635 1637 1642 1687 1725 1612 1617 1613 1625 1740 1658 1726 1608 1739 1638 1597 1682 1693 1591 1595 1707 1710 1706 1720 1719 1598 1659 1689 1716 0
-5764 0
-1789 5765 0
-1792 5765 0
-1793 5765 0
-1795 5765 0
-1796 5765 0
-1799 5765 0
-1800 5765 0
-1805 5765 0
-1806 5765 0
-1809 5765 0
-1810 5765 0
-1811 5765 0
-1812 5765 0
-1815 5765 0
-1816 5765 0
-1819 5765 0
-1820 5765 0
-1823 5765 0
-1824 5765 0
-1829 5765 0
-1830 5765 0
-1833 5765 0
-1834 5765 0
-1835 5765 0
-1836 5765 0
-1839 5765 0
-1840 5765 0
-1843 5765 0
-1850 5765 0
-1851 5765 0
-1856 5765 0
-1857 5765 0
-1867 5765 0
-1868 5765 0
-1871 5765 0
-1872 5765 0
-1879 5765 0
-1880 5765 0
-1884 5765 0
-1885 5765 0
-1886 5765 0
-1887 5765 0
-1890 5765 0
-1891 5765 0
-1892 5765 0
-1893 5765 0
-1900 5765 0
-1901 5765 0
-1904 5765 0
-1905 5765 0
-1907 5765 0
-1908 5765 0
-1913 5765 0
-1914 5765 0
-1917 5765 0
-1918 5765 0
-1923 5765 0
-1924 5765 0
-1937 5765 0
-1938 5765 0
-5765 1793 1830 1851 1868 1871 1872 1884 1879 1810 1789 1815 1839 1812 1811 1809 1805 1820 1823 1816 1829 1880 1867 1834 1833 1836 1806 1799 1850 1800 1856 1857 1840 1938 1819 1843 1796 1795 1937 1835 1886 1887 1890 1891 1892 1893 1792 1901 1824 1900 1904 1905 1907 1908 1913 1914 1917 1918 1923 1924 1885 0
-5766 0
-2137 5767 0
-2138 5767 0
-2139 5767 0
-2141 5767 0
-2142 5767 0
-2143 5767 0
-2144 5767 0
-2145 5767 0
-2146 5767 0
-2147 5767 0
-2148 5767 0
-2149 5767 0
-2150 5767 0
-2156 5767 0
-2157 5767 0
-2158 5767 0
-2159 5767 0
-2160 5767 0
-2162 5767 0
-2164 5767 0
-2165 5767 0
-2166 5767 0
-2172 5767 0
-2173 5767 0
-2174 5767 0
-2175 5767 0
-2176 5767 0
-2180 5767 0
-2182 5767 0
-2184 5767 0
-5767 2158 2137 2161 2159 2142 2184 2162 2145 2148 2174 2166 2154 2147 2156 2146 2175 2164 2171 2149 2182 2140 2176 2150 2173 2143 2165 2139 2170 2144 2155 2172 2163 2180 2157 2160 2138 2181 2141 2183 0
-5768 0
-5763 -5765 -5761 0
-5763 -5761 -5767 0
-5765 -5761 -5767 0
-5763 -5765 -5767 0
5763 5761 5765 5762 5760 5764 5759 5766 5768 0
5763 5767 5761 5762 5760 5764 5766 5759 5768 0
5767 5765 5761 5762 5764 5760 5766 5759 5768 0
5763 5767 5765 5759 5764 5760 5766 5762 5768 0
-5769 0
-5770 0
-398 5771 0
-399 5771 0
-402 5771 0
-405 5771 0
-406 5771 0
-425 5771 0
-426 5771 0
-429 5771 0
-430 5771 0
-446 5771 0
-449 5771 0
-450 5771 0
-453 5771 0
-477 5771 0
-478 5771 0
-489 5771 0
-504 5771 0
-505 5771 0
-510 5771 0
-511 5771 0
-527 5771 0
-528 5771 0
-529 5771 0
-530 5771 0
-535 5771 0
-536 5771 0
-541 5771 0
-542 5771 0
-5771 496 477 478 435 485 535 536 398 406 425 450 527 534 462 456 453 402 429 504 434 452 436 481 472 426 457 533 430 460 530 463 446 517 433 471 529 542 468 518 461 405 411 412 505 510 511 541 399 467 528 439 497 489 486 449 540 440 482 539 445 0
-5772 0
-1599 5773 0
-1620 5773 0
-1628 5773 0
-1662 5773 0
-1675 5773 0
-1676 5773 0
-1712 5773 0
-1723 5773 0
-5773 1676 1592 1661 1728 1655 1600 1721 1596 1651 1619 1691 1679 1680 1705 1690 1627 1620 1599 1672 1644 1711 1654 1640 1628 1647 1683 1704 1634 1650 1665 1723 1724 1666 1629 1675 1662 1699 1657 1698 1671 1639 1729 1735 1646 1624 1730 1630 1656 1623 1643 1712 1727 1736 1722 1593 1605 1733 1734 1606 1633 0
-5774 0
-1844 5775 0
-1845 5775 0
-1881 5775 0
-5775 1889 1845 1881 1797 1828 1933 1934 1902 1909 1841 1791 1853 1849 1855 1910 1874 1837 1878 1932 1860 1838 1877 1922 1848 1854 1873 1852 1826 1794 1859 1888 1863 1864 1869 1842 1844 1921 1832 1817 1927 1804 1818 1896 1897 1870 1903 1831 1827 1821 1920 1798 1803 1822 1825 1790 1925 1919 1928 1926 1931 0
-5776 0
-2137 5777 0
-2138 5777 0
-2139 5777 0
-2143 5777 0
-2144 5777 0
-2146 5777 0
-2147 5777 0
-2148 5777 0
-2149 5777 0
-2150 5777 0
-2151 5777 0
-2152 5777 0
-2157 5777 0
-2158 5777 0
-2159 5777 0
-2164 5777 0
-2165 5777 0
-2167 5777 0
-2169 5777 0
-2172 5777 0
-2174 5777 0
-2175 5777 0
-2176 5777 0
-2178 5777 0
-2179 5777 0
-5777 2168 2143 2158 2166 2164 2178 2152 2159 2156 2174 2172 2148 2167 2177 2153 2175 2149 2176 2169 2173 2146 2145 2138 2150 2179 2157 2144 2139 2147 2151 2165 2160 2137 0
-5778 0
-5773 -5771 -5775 0
-5775 -5771 -5777 0
-5773 -5777 -5775 0
5773 5771 5775 5772 5770 5774 5769 5776 5778 0
5773 5777 5771 5772 5770 5774 5776 5769 5778 0
5777 5775 5771 5772 5774 5770 5776 5769 5778 0
5773 5777 5775 5769 5774 5770 5776 5772 5778 0
-5779 0
-5780 0
-409 5781 0
-410 5781 0
-415 5781 0
-416 5781 0
-421 5781 0
-422 5781 0
-454 5781 0
-455 5781 0
-466 5781 0
-470 5781 0
-473 5781 0
-474 5781 0
-483 5781 0
-484 5781 0
-490 5781 0
-491 5781 0
-502 5781 0
-503 5781 0
-514 5781 0
-519 5781 0
-520 5781 0
-523 5781 0
-524 5781 0
-537 5781 0
-538 5781 0
-543 5781 0
-544 5781 0
-5781 502 454 473 503 416 455 544 474 422 506 410 543 483 409 466 507 421 523 491 484 519 490 514 520 415 537 470 469 524 538 0
-5782 0
-1603 5783 0
-1604 5783 0
-1609 5783 0
-1610 5783 0
-1615 5783 0
-1616 5783 0
-1648 5783 0
-1649 5783 0
-1660 5783 0
-1663 5783 0
-1664 5783 0
-1667 5783 0
-1668 5783 0
-1677 5783 0
-1678 5783 0
-1684 5783 0
-1685 5783 0
-1696 5783 0
-1697 5783 0
-1700 5783 0
-1701 5783 0
-1708 5783 0
-1714 5783 0
-1717 5783 0
-1718 5783 0
-1731 5783 0
-1732 5783 0
-1738 5783 0
-5783 1697 1603 1668 1708 1667 1664 1649 1678 1731 1660 1718 1684 1737 1615 1713 1696 1616 1609 1717 1738 1701 1663 1648 1714 1677 1610 1604 1732 1700 1685 0
-5784 0
-1801 5785 0
-1846 5785 0
-1858 5785 0
-1862 5785 0
-1865 5785 0
-1876 5785 0
-1895 5785 0
-1898 5785 0
-1930 5785 0
-5785 1906 1802 1861 1807 1862 1814 1847 1876 1936 1930 1846 1875 1915 1935 1912 1895 1883 1813 1894 1801 1882 1865 1858 1808 1899 1916 1911 1866 1898 1929 0
-5786 0
-2140 5787 0
-2141 5787 0
-2142 5787 0
-2151 5787 0
-2152 5787 0
-2153 5787 0
-2154 5787 0
-2155 5787 0
-2161 5787 0
-2162 5787 0
-2163 5787 0
-2167 5787 0
-2168 5787 0
-2169 5787 0
-2170 5787 0
-2171 5787 0
-2177 5787 0
-2178 5787 0
-2180 5787 0
-2181 5787 0
-2182 5787 0
-2183 5787 0
-2184 5787 0
-5787 2167 2140 2178 2152 2163 2180 2153 2177 2170 2171 2184 2181 2182 2161 2141 2169 2155 2179 2168 2154 2162 2151 2142 2183 0
-5788 0
-5783 -5781 0
-5781 -5787 0
-5783 -5787 0
-5785 -5787 0
5781 5783 5785 5787 5780 5784 5779 5786 5782 5788 0
-370 5789 0
-371 5789 0
-372 5789 0
-376 5789 0
-377 5789 0
-378 5789 0
-391 5789 0
-392 5789 0
-393 5789 0
-5789 393 372 392 391 370 376 377 378 371 0
-5790 0
-1083 5791 0
-1085 5791 0
-1089 5791 0
-1091 5791 0
-1095 5791 0
-1097 5791 0
-1110 5791 0
-1112 5791 0
-1115 5791 0
-1121 5791 0
-1125 5791 0
-1127 5791 0
-1131 5791 0
-1133 5791 0
-1146 5791 0
-1148 5791 0
-1154 5791 0
-1158 5791 0
-1160 5791 0
-1163 5791 0
-1169 5791 0
-1179 5791 0
-1181 5791 0
-1185 5791 0
-1187 5791 0
-1191 5791 0
-1193 5791 0
-5791 1193 1110 1091 1125 1083 1127 1133 1148 1169 1154 1158 1112 1191 1095 1160 1163 1167 1187 1156 1185 1131 1089 1146 1123 1115 1181 1121 1179 1085 1097 0
-5792 0
-1363 5793 0
-1364 5793 0
-1365 5793 0
-1381 5793 0
-1382 5793 0
-1383 5793 0
-1387 5793 0
-1388 5793 0
-1389 5793 0
-5793 1389 1363 1383 1381 1388 1364 1365 1387 1382 0
-5794 0
-1629 5795 0
-1631 5795 0
-1635 5795 0
-1637 5795 0
-1641 5795 0
-1643 5795 0
-1656 5795 0
-1658 5795 0
-1661 5795 0
-1667 5795 0
-1669 5795 0
-1671 5795 0
-1673 5795 0
-1677 5795 0
-1679 5795 0
-1692 5795 0
-1694 5795 0
-1700 5795 0
-1702 5795 0
-1704 5795 0
-1706 5795 0
-1709 5795 0
-1713 5795 0
-1715 5795 0
-1725 5795 0
-1727 5795 0
-1731 5795 0
-1733 5795 0
-1737 5795 0
-1739 5795 0
-5795 1704 1629 1725 1661 1643 1631 1694 1671 1706 1669 1692 1702 1739 1677 1727 1667 1737 1733 1641 1713 1637 1656 1700 1658 1635 1709 1673 1715 1731 1679 0
-5796 0
-1827 5797 0
-1829 5797 0
-1833 5797 0
-1835 5797 0
-1839 5797 0
-1841 5797 0
-1854 5797 0
-1856 5797 0
-1859 5797 0
-1865 5797 0
-1867 5797 0
-1869 5797 0
-1871 5797 0
-1875 5797 0
-1877 5797 0
-1890 5797 0
-1892 5797 0
-1898 5797 0
-1900 5797 0
-1902 5797 0
-1904 5797 0
-1907 5797 0
-1911 5797 0
-1913 5797 0
-1923 5797 0
-1925 5797 0
-1929 5797 0
-1931 5797 0
-1937 5797 0
-5797 1937 1829 1839 1867 1875 1907 1890 1833 1925 1911 1929 1841 1913 1871 1931 1904 1854 1923 1877 1869 1898 1892 1856 1859 1865 1827 1935 1835 1902 1900 0
-5798 0
-5789 -5791 0
-5793 -5789 0
-5795 -5789 0
-5797 -5789 0
-5793 -5791 0
-5795 -5791 0
-5797 -5791 0
-5795 -5793 0
-5797 -5793 0
-5795 -5797 0
5791 5793 5789 5795 5797 5794 5792 5796 5790 5798 0
-349 5799 0
-350 5799 0
-351 5799 0
-355 5799 0
-356 5799 0
-357 5799 0
-360 5799 0
-361 5799 0
-364 5799 0
-365 5799 0
-366 5799 0
-379 5799 0
-380 5799 0
-381 5799 0
-382 5799 0
-383 5799 0
-386 5799 0
-387 5799 0
-388 5799 0
-389 5799 0
-390 5799 0
-394 5799 0
-395 5799 0
-396 5799 0
-5799 388 360 355 387 380 356 386 379 350 394 390 366 381 349 383 364 396 357 361 351 382 389 395 365 0
-5800 0
-1046 5801 0
-1048 5801 0
-1050 5801 0
-1053 5801 0
-1055 5801 0
-1059 5801 0
-1063 5801 0
-1065 5801 0
-1067 5801 0
-1068 5801 0
-1069 5801 0
-1071 5801 0
-1073 5801 0
-1074 5801 0
-1077 5801 0
-1079 5801 0
-1087 5801 0
-1092 5801 0
-1093 5801 0
-1098 5801 0
-1100 5801 0
-1104 5801 0
-1117 5801 0
-1119 5801 0
-1126 5801 0
-1128 5801 0
-1129 5801 0
-1134 5801 0
-1135 5801 0
-1137 5801 0
-1138 5801 0
-1140 5801 0
-1142 5801 0
-1143 5801 0
-1144 5801 0
-1149 5801 0
-1150 5801 0
-1152 5801 0
-1159 5801 0
-1161 5801 0
-1162 5801 0
-1164 5801 0
-1165 5801 0
-1166 5801 0
-1168 5801 0
-1170 5801 0
-1171 5801 0
-1175 5801 0
-1176 5801 0
-1177 5801 0
-1182 5801 0
-1188 5801 0
-1189 5801 0
-1190 5801 0
-1192 5801 0
-1194 5801 0
-5801 1190 1067 1071 1074 1149 1162 1106 1059 1135 1119 1142 1065 1046 1137 1168 1104 1144 1164 1171 1126 1128 1159 1188 1175 1063 1140 1079 1100 1055 1138 1129 1152 1165 1069 1143 1092 1117 1050 1087 1189 1177 1161 1073 1093 1068 1061 1166 1170 1182 1098 1176 1150 1048 1134 1077 1183 1173 1192 1053 1194 0
-5802 0
-1348 5803 0
-1349 5803 0
-1350 5803 0
-1375 5803 0
-1376 5803 0
-1377 5803 0
-1390 5803 0
-1391 5803 0
-1392 5803 0
-5803 1373 1350 1375 1391 1376 1369 1370 1374 1377 1356 1390 1392 1357 1348 1349 0
-5804 0
-1592 5805 0
-1594 5805 0
-1596 5805 0
-1599 5805 0
-1601 5805 0
-1605 5805 0
-1609 5805 0
-1611 5805 0
-1613 5805 0
-1614 5805 0
-1615 5805 0
-1619 5805 0
-1620 5805 0
-1623 5805 0
-1625 5805 0
-1633 5805 0
-1638 5805 0
-1639 5805 0
-1644 5805 0
-1646 5805 0
-1650 5805 0
-1665 5805 0
-1672 5805 0
-1674 5805 0
-1680 5805 0
-1681 5805 0
-1683 5805 0
-1684 5805 0
-1686 5805 0
-1688 5805 0
-1689 5805 0
-1690 5805 0
-1695 5805 0
-1696 5805 0
-1698 5805 0
-1705 5805 0
-1707 5805 0
-1708 5805 0
-1710 5805 0
-1712 5805 0
-1717 5805 0
-1719 5805 0
-1721 5805 0
-1722 5805 0
-1723 5805 0
-1728 5805 0
-1734 5805 0
-1735 5805 0
-1738 5805 0
-1740 5805 0
-5805 1688 1663 1705 1689 1696 1623 1680 1594 1740 1738 1723 1714 1614 1619 1615 1690 1674 1650 1711 1599 1684 1686 1633 1639 1719 1712 1695 1620 1609 1652 1596 1735 1708 1681 1625 1710 1611 1617 1717 1716 1683 1707 1607 1665 1613 1722 1646 1605 1736 1644 1672 1675 1592 1728 1721 1601 1729 1638 1698 1734 0
-5806 0
-1821 5807 0
-1844 5807 0
-1879 5807 0
-1881 5807 0
-1882 5807 0
-1921 5807 0
-5807 1933 1879 1881 1790 1936 1818 1812 1873 1870 1850 1886 1938 1831 1932 1817 1821 1844 1914 1888 1917 1811 1912 1837 1878 1805 1893 1863 1872 1861 1792 1813 1803 1882 1799 1884 1887 1809 1906 1909 1896 1894 1794 1920 1908 1903 1842 1823 1836 1905 1910 1848 1915 1815 1807 1797 1934 1921 1919 1926 1927 0
-5808 0
-5801 -5799 -5805 0
-5801 -5799 -5807 0
-5803 -5799 -5805 0
-5803 -5807 -5799 0
-5799 -5805 -5807 0
-5803 -5801 -5807 0
-5801 -5805 -5807 0
5799 5801 5803 5805 5800 5804 5802 5806 5808 0
5799 5807 5803 5801 5800 5804 5806 5802 5808 0
5807 5801 5799 5805 5804 5800 5806 5802 5808 0
5799 5807 5803 5805 5804 5802 5806 5800 5808 0
-352 5809 0
-353 5809 0
-354 5809 0
-374 5809 0
-5809 369 354 363 359 385 362 373 368 352 374 367 358 384 375 353 0
-5810 0
-1049 5811 0
-1051 5811 0
-1052 5811 0
-1054 5811 0
-1056 5811 0
-1057 5811 0
-1058 5811 0
-1060 5811 0
-1062 5811 0
-1066 5811 0
-1070 5811 0
-1072 5811 0
-1076 5811 0
-1082 5811 0
-1094 5811 0
-1099 5811 0
-1101 5811 0
-1102 5811 0
-1103 5811 0
-1108 5811 0
-1109 5811 0
-1113 5811 0
-1114 5811 0
-1116 5811 0
-1118 5811 0
-1124 5811 0
-1130 5811 0
-1132 5811 0
-1136 5811 0
-1145 5811 0
-1151 5811 0
-1157 5811 0
-1178 5811 0
-5811 1178 1105 1047 1056 1045 1141 1132 1108 1122 1124 1064 1058 1130 1113 1103 1051 1080 1062 1172 1114 1184 1102 1186 1151 1082 1109 1118 1081 1139 1066 1136 1075 1084 1107 1052 1094 1049 1147 1072 1111 1088 1057 1096 1099 1157 1086 1153 1101 1060 1116 1155 1120 1145 1070 1090 1078 1076 1054 1174 1180 0
-5812 0
-1345 5813 0
-1346 5813 0
-1347 5813 0
-1351 5813 0
-1352 5813 0
-1353 5813 0
-1360 5813 0
-1361 5813 0
-1362 5813 0
-1366 5813 0
-1367 5813 0
-1368 5813 0
-1378 5813 0
-1379 5813 0
-1380 5813 0
-1384 5813 0
-1385 5813 0
-1386 5813 0
-5813 1358 1347 1362 1367 1386 1352 1384 1366 1379 1351 1368 1380 1353 1346 1359 1378 1345 1361 1385 1372 1360 1371 1354 1355 0
-5814 0
-1591 5815 0
-1593 5815 0
-1595 5815 0
-1597 5815 0
-1600 5815 0
-1602 5815 0
-1603 5815 0
-1606 5815 0
-1608 5815 0
-1616 5815 0
-1618 5815 0
-1621 5815 0
-1622 5815 0
-1624 5815 0
-1626 5815 0
-1627 5815 0
-1628 5815 0
-1630 5815 0
-1632 5815 0
-1634 5815 0
-1640 5815 0
-1642 5815 0
-1645 5815 0
-1647 5815 0
-1648 5815 0
-1649 5815 0
-1651 5815 0
-1653 5815 0
-1654 5815 0
-1655 5815 0
-1657 5815 0
-1659 5815 0
-1660 5815 0
-1662 5815 0
-1664 5815 0
-1670 5815 0
-1676 5815 0
-1678 5815 0
-1682 5815 0
-1687 5815 0
-1697 5815 0
-1703 5815 0
-1718 5815 0
-1720 5815 0
-1724 5815 0
-1726 5815 0
-1730 5815 0
-1732 5815 0
-5815 1697 1670 1657 1626 1608 1591 1645 1653 1627 1703 1618 1602 1628 1660 1622 1685 1691 1668 1654 1693 1732 1621 1647 1630 1718 1603 1651 1648 1624 1720 1606 1666 1699 1682 1634 1598 1632 1678 1649 1724 1595 1701 1610 1664 1593 1687 1612 1676 1616 1636 1642 1655 1662 1659 1726 1604 1730 1640 1597 1600 0
-5816 0
-1791 5817 0
-1795 5817 0
-1796 5817 0
-1798 5817 0
-1800 5817 0
-1804 5817 0
-1806 5817 0
-1822 5817 0
-1824 5817 0
-1828 5817 0
-1830 5817 0
-1838 5817 0
-1840 5817 0
-1843 5817 0
-1845 5817 0
-1849 5817 0
-1851 5817 0
-1852 5817 0
-1855 5817 0
-1857 5817 0
-1860 5817 0
-1874 5817 0
-1876 5817 0
-1880 5817 0
-1889 5817 0
-5817 1883 1845 1802 1868 1804 1789 1855 1791 1922 1793 1880 1808 1840 1876 1866 1819 1851 1930 1816 1832 1826 1846 1830 1825 1838 1796 1828 1822 1806 1847 1849 1810 1834 1853 1852 1857 1858 1860 1862 1864 1820 1843 1874 1814 1901 1891 1885 1924 1889 1895 1800 1928 1801 1795 1918 1798 1899 1897 1916 1824 0
-5818 0
-5811 -5815 -5809 0
-5811 -5815 -5813 0
-5811 -5817 -5813 0
-5811 -5815 -5817 0
-5815 -5817 -5813 0
5811 5809 5813 5817 5810 5814 5816 5812 5818 0
5811 5815 5809 5817 5814 5810 5816 5812 5818 0
5815 5813 5809 5817 5814 5812 5816 5810 5818 0
5811 5815 5813 5817 5814 5812 5816 5810 5818 0
-349 5819 0
-350 5819 0
-351 5819 0
-352 5819 0
-353 5819 0
-354 5819 0
-355 5819 0
-356 5819 0
-357 5819 0
-364 5819 0
-365 5819 0
-366 5819 0
-367 5819 0
-368 5819 0
-369 5819 0
-373 5819 0
-374 5819 0
-375 5819 0
-379 5819 0
-380 5819 0
-381 5819 0
-388 5819 0
-389 5819 0
-390 5819 0
-394 5819 0
-395 5819 0
-396 5819 0
-5819 388 359 379 352 354 364 368 373 350 349 369 365 355 367 358 353 366 363 380 385 351 395 394 396 357 374 375 390 356 384 387 386 382 361 381 360 383 362 389 0
-5820 0
-1045 5821 0
-1047 5821 0
-1049 5821 0
-1051 5821 0
-1056 5821 0
-1057 5821 0
-1059 5821 0
-1061 5821 0
-1062 5821 0
-1065 5821 0
-1070 5821 0
-1071 5821 0
-1072 5821 0
-1075 5821 0
-1080 5821 0
-1081 5821 0
-1086 5821 0
-1094 5821 0
-1096 5821 0
-1099 5821 0
-1101 5821 0
-1102 5821 0
-1104 5821 0
-1106 5821 0
-1107 5821 0
-1108 5821 0
-1114 5821 0
-1116 5821 0
-1118 5821 0
-1119 5821 0
-1124 5821 0
-1128 5821 0
-1129 5821 0
-1130 5821 0
-1134 5821 0
-1136 5821 0
-1140 5821 0
-1151 5821 0
-1152 5821 0
-1157 5821 0
-1161 5821 0
-1170 5821 0
-1172 5821 0
-1173 5821 0
-1174 5821 0
-1175 5821 0
-1178 5821 0
-1183 5821 0
-1184 5821 0
-1188 5821 0
-1194 5821 0
-5821 1119 1045 1067 1065 1183 1071 1151 1108 1124 1047 1051 1062 1102 1059 1094 1152 1134 1178 1136 1081 1129 1075 1175 1099 1157 1106 1132 1140 1072 1116 1101 1104 1114 1186 1107 1142 1118 1172 1128 1070 1130 1113 1174 1170 1057 1161 1073 1096 1165 1086 1188 1173 1049 1194 1056 1061 1189 1180 1184 1080 0
-5822 0
-5823 0
-5824 0
-1591 5825 0
-1593 5825 0
-1595 5825 0
-1597 5825 0
-1602 5825 0
-1603 5825 0
-1605 5825 0
-1607 5825 0
-1608 5825 0
-1611 5825 0
-1613 5825 0
-1616 5825 0
-1617 5825 0
-1618 5825 0
-1619 5825 0
-1621 5825 0
-1626 5825 0
-1627 5825 0
-1632 5825 0
-1640 5825 0
-1642 5825 0
-1645 5825 0
-1647 5825 0
-1648 5825 0
-1650 5825 0
-1652 5825 0
-1653 5825 0
-1654 5825 0
-1659 5825 0
-1660 5825 0
-1662 5825 0
-1664 5825 0
-1665 5825 0
-1670 5825 0
-1674 5825 0
-1675 5825 0
-1676 5825 0
-1678 5825 0
-1680 5825 0
-1682 5825 0
-1686 5825 0
-1688 5825 0
-1697 5825 0
-1698 5825 0
-1703 5825 0
-1707 5825 0
-1711 5825 0
-1716 5825 0
-1718 5825 0
-1719 5825 0
-1720 5825 0
-1721 5825 0
-1724 5825 0
-1726 5825 0
-1729 5825 0
-1730 5825 0
-1732 5825 0
-1734 5825 0
-1735 5825 0
-1740 5825 0
-5825 1670 1591 1680 1645 1688 1703 1626 1621 1697 1619 1602 1608 1650 1711 1675 1686 1648 1653 1607 1718 1654 1660 1627 1678 1647 1721 1597 1632 1730 1732 1616 1724 1676 1682 1674 1719 1611 1664 1652 1720 1740 1617 1605 1595 1640 1707 1734 1716 1613 1642 1735 1618 1603 1665 1659 1593 1698 1726 1662 1729 0
-5826 0
-1789 5827 0
-1791 5827 0
-1843 5827 0
-1845 5827 0
-1846 5827 0
-1848 5827 0
-1850 5827 0
-1852 5827 0
-1868 5827 0
-1873 5827 0
-1874 5827 0
-1880 5827 0
-1909 5827 0
-1922 5827 0
-1927 5827 0
-1930 5827 0
-1932 5827 0
-5827 1845 1809 1830 1816 1795 1793 1868 1789 1884 1848 1876 1852 1846 1811 1863 1909 1819 1880 1815 1851 1843 1857 1850 1806 1791 1800 1928 1840 1858 1860 1930 1825 1817 1872 1805 1874 1814 1878 1862 1932 1824 1938 1803 1838 1801 1873 1914 1895 1917 1918 1896 1922 1919 1924 1905 1916 1901 1927 1933 1886 0
-5828 0
-5821 -5825 -5819 0
-5821 -5827 -5819 0
-5827 -5825 -5819 0
-5821 -5825 -5827 0
5819 5821 5825 5822 5823 5824 5820 5826 5828 0
5819 5827 5821 5822 5823 5824 5826 5820 5828 0
5819 5827 5825 5823 5824 5820 5826 5822 5828 0
5827 5825 5821 5823 5824 5820 5826 5822 5828 0
-352 5829 0
-353 5829 0
-354 5829 0
-363 5829 0
-367 5829 0
-368 5829 0
-369 5829 0
-370 5829 0
-371 5829 0
-372 5829 0
-373 5829 0
-374 5829 0
-375 5829 0
-376 5829 0
-377 5829 0
-378 5829 0
-385 5829 0
-391 5829 0
-392 5829 0
-393 5829 0
-5829 358 352 376 371 368 393 374 354 367 391 370 353 385 373 369 375 363 377 378 384 359 392 362 372 0
-5830 0
-1052 5831 0
-1054 5831 0
-1058 5831 0
-1060 5831 0
-1064 5831 0
-1066 5831 0
-1076 5831 0
-1078 5831 0
-1082 5831 0
-1084 5831 0
-1088 5831 0
-1090 5831 0
-1103 5831 0
-1105 5831 0
-1109 5831 0
-1111 5831 0
-1115 5831 0
-1120 5831 0
-1122 5831 0
-1123 5831 0
-1125 5831 0
-1139 5831 0
-1141 5831 0
-1145 5831 0
-1147 5831 0
-1153 5831 0
-1155 5831 0
-1156 5831 0
-1158 5831 0
-1163 5831 0
-5831 1078 1052 1066 1103 1123 1105 1082 1088 1122 1153 1163 1109 1156 1060 1141 1054 1090 1125 1147 1064 1145 1139 1115 1111 1076 1158 1155 1058 1120 1084 0
-5832 0
-5833 0
-5834 0
-1598 5835 0
-1600 5835 0
-1604 5835 0
-1606 5835 0
-1610 5835 0
-1612 5835 0
-1622 5835 0
-1624 5835 0
-1628 5835 0
-1630 5835 0
-1634 5835 0
-1636 5835 0
-1649 5835 0
-1651 5835 0
-1655 5835 0
-1657 5835 0
-1661 5835 0
-1666 5835 0
-1668 5835 0
-1669 5835 0
-1671 5835 0
-1685 5835 0
-1687 5835 0
-1691 5835 0
-1693 5835 0
-1699 5835 0
-1701 5835 0
-1702 5835 0
-1704 5835 0
-1709 5835 0
-5835 1704 1651 1669 1661 1657 1668 1691 1636 1702 1671 1624 1699 1687 1622 1610 1666 1709 1634 1598 1630 1649 1685 1701 1693 1655 1606 1628 1612 1600 1604 0
-5836 0
-1796 5837 0
-1798 5837 0
-1802 5837 0
-1804 5837 0
-1808 5837 0
-1810 5837 0
-1820 5837 0
-1822 5837 0
-1826 5837 0
-1828 5837 0
-1847 5837 0
-1849 5837 0
-1853 5837 0
-1855 5837 0
-1859 5837 0
-1864 5837 0
-1866 5837 0
-1867 5837 0
-1869 5837 0
-1883 5837 0
-1885 5837 0
-1889 5837 0
-1897 5837 0
-1899 5837 0
-1900 5837 0
-1902 5837 0
-5837 1899 1796 1808 1802 1855 1902 1907 1828 1866 1849 1832 1847 1810 1798 1885 1883 1853 1869 1864 1867 1822 1900 1834 1820 1859 1826 1804 1889 1891 1897 0
-5838 0
-5831 -5829 0
-5835 -5829 0
-5837 -5829 0
-5831 -5835 0
-5831 -5837 0
-5835 -5837 0
5831 5829 5835 5837 5833 5834 5830 5836 5832 5838 0
-349 5839 0
-350 5839 0
-351 5839 0
-355 5839 0
-356 5839 0
-357 5839 0
-360 5839 0
-361 5839 0
-364 5839 0
-365 5839 0
-366 5839 0
-370 5839 0
-371 5839 0
-372 5839 0
-376 5839 0
-377 5839 0
-378 5839 0
-379 5839 0
-380 5839 0
-381 5839 0
-382 5839 0
-383 5839 0
-386 5839 0
-388 5839 0
-389 5839 0
-390 5839 0
-391 5839 0
-392 5839 0
-393 5839 0
-394 5839 0
-395 5839 0
-396 5839 0
-5839 360 355 370 349 388 356 357 393 364 365 366 351 379 372 376 377 378 350 380 381 382 383 386 387 361 389 390 391 392 394 395 396 371 0
-5840 0
-1046 5841 0
-1048 5841 0
-1050 5841 0
-1053 5841 0
-1055 5841 0
-1063 5841 0
-1068 5841 0
-1069 5841 0
-1074 5841 0
-1077 5841 0
-1079 5841 0
-1083 5841 0
-1087 5841 0
-1089 5841 0
-1091 5841 0
-1092 5841 0
-1093 5841 0
-1095 5841 0
-1097 5841 0
-1098 5841 0
-1100 5841 0
-1112 5841 0
-1117 5841 0
-1121 5841 0
-1126 5841 0
-1127 5841 0
-1131 5841 0
-1133 5841 0
-1135 5841 0
-1137 5841 0
-1143 5841 0
-1146 5841 0
-1148 5841 0
-1150 5841 0
-1154 5841 0
-1160 5841 0
-1162 5841 0
-1166 5841 0
-1167 5841 0
-1168 5841 0
-1169 5841 0
-1176 5841 0
-1177 5841 0
-1181 5841 0
-1182 5841 0
-1185 5841 0
-1187 5841 0
-1191 5841 0
-1193 5841 0
-5841 1148 1117 1098 1085 1127 1046 1068 1074 1110 1100 1193 1055 1135 1133 1050 1167 1166 1083 1095 1187 1168 1192 1137 1069 1164 1097 1149 1063 1159 1182 1146 1143 1144 1077 1121 1150 1089 1092 1154 1126 1177 1138 1190 1091 1053 1160 1169 1087 1112 1162 1093 1171 1179 1181 1131 1185 1191 1048 1079 1176 0
-5842 0
-5843 0
-5844 0
-1592 5845 0
-1594 5845 0
-1596 5845 0
-1599 5845 0
-1601 5845 0
-1609 5845 0
-1615 5845 0
-1620 5845 0
-1623 5845 0
-1625 5845 0
-1629 5845 0
-1631 5845 0
-1635 5845 0
-1637 5845 0
-1639 5845 0
-1641 5845 0
-1643 5845 0
-1644 5845 0
-1646 5845 0
-1656 5845 0
-1658 5845 0
-1663 5845 0
-1667 5845 0
-1672 5845 0
-1673 5845 0
-1677 5845 0
-1679 5845 0
-1681 5845 0
-1683 5845 0
-1684 5845 0
-1689 5845 0
-1690 5845 0
-1692 5845 0
-1694 5845 0
-1695 5845 0
-1696 5845 0
-1700 5845 0
-1705 5845 0
-1706 5845 0
-1708 5845 0
-1710 5845 0
-1712 5845 0
-1715 5845 0
-1717 5845 0
-1722 5845 0
-1723 5845 0
-1728 5845 0
-1731 5845 0
-1737 5845 0
-5845 1689 1667 1592 1705 1715 1673 1692 1594 1677 1644 1643 1696 1681 1629 1620 1739 1712 1656 1727 1690 1638 1710 1599 1635 1714 1672 1736 1708 1637 1684 1631 1725 1614 1722 1641 1625 1695 1738 1663 1700 1723 1633 1615 1658 1623 1609 1639 1679 1694 1717 1601 1646 1596 1731 1733 1728 1737 1706 1683 1713 0
-5846 0
-1844 5847 0
-1879 5847 0
-1881 5847 0
-5847 1937 1881 1790 1879 1841 1821 1875 1887 1903 1935 1799 1912 1844 1882 1890 1835 1925 1929 1842 1931 1888 1893 1926 1839 1861 1877 1813 1871 1854 1908 1831 1833 1892 1818 1870 1836 1920 1807 1856 1898 1794 1904 1921 1894 1812 1797 1837 1829 1911 1792 1827 1823 1936 1865 1910 1906 1934 1923 1913 1915 0
-5848 0
-5841 -5839 -5845 0
-5841 -5839 -5847 0
-5839 -5845 -5847 0
-5841 -5845 -5847 0
5839 5841 5845 5842 5843 5844 5840 5846 5848 0
5845 5847 5839 5843 5844 5840 5846 5842 5848 0
5847 5845 5841 5843 5844 5840 5846 5842 5848 0
-5849 0
-5850 0
-1046 5851 0
-1048 5851 0
-1050 5851 0
-1052 5851 0
-1054 5851 0
-1055 5851 0
-1058 5851 0
-1060 5851 0
-1066 5851 0
-1076 5851 0
-1078 5851 0
-1079 5851 0
-1082 5851 0
-1084 5851 0
-1093 5851 0
-1100 5851 0
-1103 5851 0
-1105 5851 0
-1109 5851 0
-1117 5851 0
-1120 5851 0
-1126 5851 0
-1135 5851 0
-1137 5851 0
-1138 5851 0
-1139 5851 0
-1141 5851 0
-1143 5851 0
-1145 5851 0
-1149 5851 0
-1150 5851 0
-1153 5851 0
-1159 5851 0
-1162 5851 0
-1168 5851 0
-5851 1079 1052 1063 1046 1150 1074 1087 1182 1069 1144 1100 1135 1164 1060 1126 1117 1111 1055 1054 1149 1137 1153 1098 1143 1190 1168 1138 1177 1192 1068 1120 1076 1084 1088 1105 1077 1090 1058 1155 1147 1145 1103 1141 1050 1171 1093 1176 1078 1159 1064 1109 1166 1162 1048 1082 1053 1092 1139 1066 1122 0
-5852 0
-1345 5853 0
-1346 5853 0
-1347 5853 0
-1348 5853 0
-1349 5853 0
-1350 5853 0
-1351 5853 0
-1352 5853 0
-1353 5853 0
-1359 5853 0
-1360 5853 0
-1361 5853 0
-1362 5853 0
-1366 5853 0
-1367 5853 0
-1368 5853 0
-1370 5853 0
-1375 5853 0
-1376 5853 0
-1377 5853 0
-1378 5853 0
-1379 5853 0
-1380 5853 0
-1384 5853 0
-1385 5853 0
-1386 5853 0
-1390 5853 0
-1391 5853 0
-1392 5853 0
-5853 1356 1350 1366 1347 1345 1367 1368 1376 1352 1351 1386 1377 1379 1378 1353 1346 1370 1384 1359 1348 1380 1385 1361 1360 1355 1362 1390 1374 1392 1354 1372 1391 1358 1357 1369 1371 1349 1375 1373 0
-5854 0
-1592 5855 0
-1594 5855 0
-1596 5855 0
-1599 5855 0
-1600 5855 0
-1601 5855 0
-1615 5855 0
-1620 5855 0
-1623 5855 0
-1624 5855 0
-1636 5855 0
-1639 5855 0
-1646 5855 0
-1649 5855 0
-1651 5855 0
-1655 5855 0
-1657 5855 0
-1663 5855 0
-1672 5855 0
-1681 5855 0
-1684 5855 0
-1685 5855 0
-1687 5855 0
-1689 5855 0
-1690 5855 0
-1691 5855 0
-1695 5855 0
-1696 5855 0
-1705 5855 0
-1708 5855 0
-1710 5855 0
-1712 5855 0
-1714 5855 0
-1717 5855 0
-1722 5855 0
-1723 5855 0
-5855 1705 1592 1696 1687 1689 1690 1712 1728 1657 1614 1738 1604 1668 1599 1598 1624 1633 1644 1681 1685 1623 1691 1649 1596 1714 1701 1622 1594 1625 1630 1710 1695 1606 1684 1683 1628 1609 1736 1651 1612 1666 1639 1610 1600 1638 1693 1636 1655 1672 1723 1708 1646 1699 1634 1615 1601 1717 1620 1663 1722 0
-5856 0
-1813 5857 0
-1822 5857 0
-1844 5857 0
-1879 5857 0
-1881 5857 0
-1883 5857 0
-5857 1879 1792 1802 1881 1861 1837 1790 1831 1855 1844 1934 1810 1926 1915 1936 1887 1910 1912 1921 1842 1920 1853 1834 1889 1836 1908 1828 1888 1847 1885 1818 1813 1822 1849 1866 1870 1821 1812 1807 1883 1804 1832 1906 1798 1891 1820 1799 1897 1899 1882 1893 1864 1894 1797 1808 1796 1823 1826 1903 1794 0
-5858 0
-5851 -5855 -5853 0
-5851 -5857 -5853 0
-5851 -5857 -5855 0
-5855 -5857 -5853 0
5853 5851 5855 5852 5850 5854 5849 5856 5858 0
5855 5857 5851 5852 5854 5850 5856 5849 5858 0
5857 5855 5853 5849 5854 5850 5856 5852 5858 0
-5859 0
-5860 0
-1047 5861 0
-1051 5861 0
-1056 5861 0
-1062 5861 0
-1070 5861 0
-1075 5861 0
-1080 5861 0
-1081 5861 0
-1083 5861 0
-1085 5861 0
-1089 5861 0
-1094 5861 0
-1095 5861 0
-1099 5861 0
-1101 5861 0
-1102 5861 0
-1107 5861 0
-1108 5861 0
-1110 5861 0
-1112 5861 0
-1114 5861 0
-1116 5861 0
-1118 5861 0
-1121 5861 0
-1124 5861 0
-1130 5861 0
-1131 5861 0
-1136 5861 0
-1146 5861 0
-1151 5861 0
-1154 5861 0
-1157 5861 0
-1172 5861 0
-1178 5861 0
-1179 5861 0
-1181 5861 0
-1184 5861 0
-1185 5861 0
-1187 5861 0
-5861 1108 1045 1127 1136 1169 1091 1118 1124 1049 1154 1047 1133 1051 1172 1072 1107 1146 1094 1095 1148 1096 1160 1057 1080 1116 1086 1121 1113 1099 1193 1070 1191 1110 1132 1130 1102 1178 1101 1081 1056 1062 1089 1085 1157 1097 1187 1167 1083 1151 1174 1131 1180 1181 1114 1179 1184 1185 1075 1186 1112 0
-5862 0
-1345 5863 0
-1346 5863 0
-1347 5863 0
-1353 5863 0
-1363 5863 0
-1364 5863 0
-1365 5863 0
-1366 5863 0
-1379 5863 0
-1381 5863 0
-1382 5863 0
-1383 5863 0
-1386 5863 0
-1387 5863 0
-1388 5863 0
-1389 5863 0
-5863 1384 1347 1362 1363 1368 1359 1351 1353 1386 1364 1381 1352 1345 1379 1383 1354 1378 1346 1371 1389 1385 1380 1366 1360 1367 1387 1388 1372 1365 1361 1382 1358 1355 0
-5864 0
-1591 5865 0
-1593 5865 0
-1595 5865 0
-1597 5865 0
-1602 5865 0
-1603 5865 0
-1608 5865 0
-1616 5865 0
-1618 5865 0
-1621 5865 0
-1626 5865 0
-1627 5865 0
-1631 5865 0
-1632 5865 0
-1635 5865 0
-1640 5865 0
-1641 5865 0
-1642 5865 0
-1647 5865 0
-1648 5865 0
-1653 5865 0
-1654 5865 0
-1658 5865 0
-1659 5865 0
-1660 5865 0
-1662 5865 0
-1664 5865 0
-1670 5865 0
-1676 5865 0
-1677 5865 0
-1678 5865 0
-1679 5865 0
-1682 5865 0
-1697 5865 0
-1703 5865 0
-1715 5865 0
-1718 5865 0
-1720 5865 0
-1725 5865 0
-1726 5865 0
-1730 5865 0
-1732 5865 0
-1739 5865 0
-5865 1739 1660 1616 1697 1715 1667 1645 1608 1653 1591 1647 1694 1656 1648 1732 1703 1654 1670 1662 1713 1602 1641 1642 1664 1597 1627 1626 1637 1692 1621 1632 1718 1676 1629 1673 1658 1677 1659 1631 1640 1595 1724 1682 1700 1635 1706 1593 1737 1720 1678 1727 1725 1643 1726 1731 1679 1603 1733 1730 1618 0
-5866 0
-1791 5867 0
-1795 5867 0
-1800 5867 0
-1806 5867 0
-1814 5867 0
-1816 5867 0
-1830 5867 0
-1838 5867 0
-1839 5867 0
-1840 5867 0
-1843 5867 0
-1845 5867 0
-1857 5867 0
-1858 5867 0
-1860 5867 0
-1874 5867 0
-1876 5867 0
-1880 5867 0
-1895 5867 0
-1901 5867 0
-1913 5867 0
-1916 5867 0
-1922 5867 0
-1923 5867 0
-1924 5867 0
-1928 5867 0
-1930 5867 0
-5867 1793 1845 1839 1868 1880 1801 1789 1890 1791 1911 1913 1833 1846 1876 1857 1840 1829 1830 1841 1800 1838 1929 1851 1916 1835 1854 1856 1819 1852 1858 1862 1865 1860 1871 1937 1875 1827 1877 1795 1901 1892 1895 1843 1874 1898 1924 1816 1930 1918 1922 1923 1806 1925 1904 1814 1825 1928 1931 1935 1824 0
-5868 0
-5865 -5861 -5863 0
-5861 -5867 -5863 0
-5867 -5865 -5861 0
-5865 -5867 -5863 0
5861 5863 5865 5862 5860 5864 5859 5866 5868 0
5861 5867 5865 5862 5864 5860 5866 5859 5868 0
5867 5865 5863 5859 5864 5860 5866 5862 5868 0
-5869 0
-5870 0
-1059 5871 0
-1061 5871 0
-1065 5871 0
-1067 5871 0
-1073 5871 0
-1104 5871 0
-1106 5871 0
-1115 5871 0
-1119 5871 0
-1123 5871 0
-1125 5871 0
-1128 5871 0
-1129 5871 0
-1134 5871 0
-1140 5871 0
-1142 5871 0
-1152 5871 0
-1156 5871 0
-1158 5871 0
-1163 5871 0
-1165 5871 0
-1170 5871 0
-1173 5871 0
-1175 5871 0
-1183 5871 0
-1188 5871 0
-1189 5871 0
-1194 5871 0
-5871 1189 1123 1061 1106 1119 1115 1065 1194 1073 1152 1104 1071 1059 1142 1134 1175 1188 1125 1183 1163 1067 1170 1129 1128 1156 1140 1165 1158 1173 1161 0
-5872 0
-1348 5873 0
-1349 5873 0
-1350 5873 0
-1363 5873 0
-1364 5873 0
-1365 5873 0
-1370 5873 0
-1375 5873 0
-1376 5873 0
-1377 5873 0
-1381 5873 0
-1382 5873 0
-1383 5873 0
-1387 5873 0
-1388 5873 0
-1389 5873 0
-1390 5873 0
-1391 5873 0
-1392 5873 0
-5873 1369 1363 1391 1376 1370 1389 1388 1375 1357 1381 1364 1356 1377 1382 1365 1383 1387 1373 1348 1349 1390 1374 1350 1392 0
-5874 0
-1605 5875 0
-1607 5875 0
-1613 5875 0
-1617 5875 0
-1619 5875 0
-1650 5875 0
-1652 5875 0
-1661 5875 0
-1665 5875 0
-1669 5875 0
-1671 5875 0
-1674 5875 0
-1675 5875 0
-1680 5875 0
-1686 5875 0
-1688 5875 0
-1698 5875 0
-1702 5875 0
-1704 5875 0
-1707 5875 0
-1709 5875 0
-1711 5875 0
-1716 5875 0
-1719 5875 0
-1721 5875 0
-1729 5875 0
-1734 5875 0
-1735 5875 0
-1740 5875 0
-5875 1716 1661 1605 1680 1709 1688 1704 1702 1652 1711 1669 1674 1671 1686 1698 1665 1619 1613 1650 1719 1707 1617 1729 1611 1607 1735 1675 1740 1721 1734 0
-5876 0
-1803 5877 0
-1805 5877 0
-1809 5877 0
-1811 5877 0
-1815 5877 0
-1817 5877 0
-1848 5877 0
-1850 5877 0
-1859 5877 0
-1863 5877 0
-1867 5877 0
-1869 5877 0
-1872 5877 0
-1873 5877 0
-1878 5877 0
-1884 5877 0
-1886 5877 0
-1896 5877 0
-1905 5877 0
-1907 5877 0
-1909 5877 0
-1914 5877 0
-1917 5877 0
-1919 5877 0
-1927 5877 0
-1932 5877 0
-1933 5877 0
-1938 5877 0
-5877 1902 1878 1811 1933 1886 1817 1914 1863 1850 1803 1809 1932 1869 1919 1938 1896 1859 1884 1909 1848 1872 1867 1927 1815 1900 1905 1873 1917 1805 1907 0
-5878 0
-5873 -5871 0
-5871 -5875 0
-5871 -5877 0
-5873 -5875 0
-5873 -5877 0
-5875 -5877 0
5873 5871 5875 5877 5870 5874 5869 5876 5872 5878 0
-169 5879 0
-170 5879 0
-171 5879 0
-177 5879 0
-178 5879 0
-179 5879 0
-190 5879 0
-191 5879 0
-192 5879 0
-5879 192 179 169 191 177 178 190 171 170 0
-5880 0
-435 5881 0
-437 5881 0
-441 5881 0
-443 5881 0
-462 5881 0
-464 5881 0
-467 5881 0
-473 5881 0
-475 5881 0
-477 5881 0
-479 5881 0
-498 5881 0
-500 5881 0
-506 5881 0
-508 5881 0
-510 5881 0
-515 5881 0
-521 5881 0
-531 5881 0
-533 5881 0
-537 5881 0
-539 5881 0
-543 5881 0
-545 5881 0
-5881 531 443 435 467 475 464 473 537 545 506 508 462 519 500 449 477 485 441 483 479 515 510 447 512 539 543 498 437 533 521 0
-5882 0
-1564 5883 0
-1565 5883 0
-1566 5883 0
-1570 5883 0
-1571 5883 0
-1572 5883 0
-1585 5883 0
-1586 5883 0
-1587 5883 0
-5883 1587 1564 1565 1566 1570 1585 1571 1586 1572 0
-5884 0
-1759 5885 0
-1760 5885 0
-1761 5885 0
-1777 5885 0
-1778 5885 0
-1779 5885 0
-1783 5885 0
-1784 5885 0
-1785 5885 0
-5885 1784 1759 1779 1785 1783 1761 1777 1760 1778 0
-5886 0
-2156 5887 0
-2157 5887 0
-2158 5887 0
-2172 5887 0
-2173 5887 0
-2174 5887 0
-2180 5887 0
-2181 5887 0
-2182 5887 0
-5887 2172 2157 2182 2181 2174 2173 2180 2156 2158 0
-5888 0
-5879 -5881 0
-5879 -5883 0
-5879 -5885 0
-5879 -5887 0
-5881 -5883 0
-5881 -5885 0
-5881 -5887 0
-5883 -5885 0
-5887 -5883 0
-5887 -5885 0
5881 5885 5883 5879 5887 5884 5882 5886 5880 5888 0
5889 -159 0
-398 5891 0
-400 5891 0
-421 5891 0
-469 5891 0
-490 5891 0
-496 5891 0
-501 5891 0
-502 5891 0
-514 5891 0
-1543 5893 0
-1544 5893 0
-1549 5893 0
-1550 5893 0
-1554 5893 0
-1558 5893 0
-1559 5893 0
-1560 5893 0
-1575 5893 0
-1580 5893 0
-5893 1580 1559 1560 1574 1581 1573 1577 1589 1549 1575 1588 1582 1543 1590 1584 1545 1558 1555 1544 1550 1583 1576 1551 1554 0
-1771 5895 0
5895 -1772 0
5895 -1787 0
-2164 5897 0
-2165 5897 0
-2175 5897 0
-5893 -5891 -5889 0
-5891 -5895 -5889 0
-5897 -5893 -5891 0
-161 5899 0
-5899 193 151 166 168 167 161 153 173 172 162 180 160 152 194 181 0
-5900 0
-408 5901 0
-451 5901 0
-453 5901 0
-454 5901 0
-455 5901 0
-457 5901 0
-460 5901 0
-461 5901 0
-463 5901 0
-465 5901 0
-484 5901 0
-532 5901 0
-538 5901 0
-5901 503 453 406 509 532 448 442 399 427 499 454 488 446 460 430 530 403 482 440 416 434 438 538 410 433 436 397 422 470 468 455 409 457 412 461 463 418 428 432 484 536 404 465 476 424 466 491 507 493 497 459 451 472 474 401 505 526 524 414 408 0
-5902 0
-1561 5903 0
-1563 5903 0
-5903 1557 1547 1568 1548 1546 1552 1562 1579 1563 1567 1553 1569 1561 1556 1578 0
-5904 0
-1743 5905 0
-1748 5905 0
-1756 5905 0
-1757 5905 0
-1758 5905 0
-1762 5905 0
-1763 5905 0
-1764 5905 0
-5905 1756 1747 1764 1782 1750 1755 1774 1748 1741 1742 1757 1776 1775 1780 1758 1762 1754 1781 1743 1767 1763 1749 1751 1768 0
-5906 0
5907 -2137 0
-2138 5907 0
5907 -2139 0
5907 -2140 0
5907 -2146 0
5907 -2147 0
5907 -2148 0
5907 -2151 0
5907 -2152 0
5907 -2154 0
-2155 5907 0
5907 -2162 0
5907 -2163 0
5907 -2167 0
5907 -2169 0
5907 -2170 0
5907 -2171 0
-5907 2149 2138 2142 2141 2169 2147 2148 2155 2161 2171 2152 2137 2163 2140 2146 2153 2139 2167 2168 2151 2170 2154 2162 2150 0
-5908 0
-5907 -5899 -5901 0
-5901 -5903 -5905 0
-5907 -5901 -5905 0
-5907 -5903 -5905 0
5901 5903 5899 5905 5900 5904 5902 5906 5908 0
-152 5909 0
-184 5909 0
-185 5909 0
-186 5909 0
-197 5909 0
-198 5909 0
-5909 186 154 159 194 151 168 184 198 158 175 157 162 176 160 181 165 183 161 155 164 163 187 188 185 197 195 196 189 173 156 174 182 167 166 152 193 153 172 180 0
-5910 0
-399 5911 0
-403 5911 0
-408 5911 0
-409 5911 0
-411 5911 0
-413 5911 0
-417 5911 0
-419 5911 0
-423 5911 0
-427 5911 0
-432 5911 0
-438 5911 0
-446 5911 0
-451 5911 0
-453 5911 0
-454 5911 0
-456 5911 0
-458 5911 0
-459 5911 0
-460 5911 0
-465 5911 0
-468 5911 0
-470 5911 0
-471 5911 0
-476 5911 0
-480 5911 0
-481 5911 0
-482 5911 0
-484 5911 0
-488 5911 0
-492 5911 0
-494 5911 0
-503 5911 0
-513 5911 0
-517 5911 0
-524 5911 0
-525 5911 0
-526 5911 0
-527 5911 0
-530 5911 0
-532 5911 0
-538 5911 0
-540 5911 0
-5911 453 399 423 503 509 419 397 532 460 448 427 481 480 488 527 513 466 538 536 470 422 438 433 492 451 546 459 409 541 468 401 522 471 456 465 458 424 526 476 484 486 524 530 417 454 494 411 504 425 413 535 446 403 525 482 432 408 540 414 517 0
-5912 0
-1551 5913 0
-1558 5913 0
-1559 5913 0
-1560 5913 0
-1562 5913 0
-1563 5913 0
-1583 5913 0
-5913 1559 1547 1554 1568 1557 1548 1562 1550 1551 1545 1544 1556 1555 1553 1549 1552 1560 1561 1543 1563 1567 1546 1569 1573 1574 1575 1558 1581 1576 1577 1578 1579 1582 1583 1584 1588 1589 1590 1580 0
-5914 0
-5915 0
-5916 0
-5917 0
-5918 0
-5911 -5909 -5913 0
5909 5911 5910 5912 5914 5915 5916 5917 5918 0
5913 5909 5912 5910 5914 5915 5916 5917 5918 0
-151 5919 0
-152 5919 0
-153 5919 0
-160 5919 0
-161 5919 0
-162 5919 0
-166 5919 0
-167 5919 0
-168 5919 0
-169 5919 0
-170 5919 0
-171 5919 0
-177 5919 0
-178 5919 0
-179 5919 0
-180 5919 0
-181 5919 0
-190 5919 0
-191 5919 0
-192 5919 0
-193 5919 0
-194 5919 0
-5919 192 151 166 173 153 177 178 181 191 194 179 162 190 152 167 161 169 168 193 172 180 170 160 171 0
-5920 0
-404 5921 0
-406 5921 0
-410 5921 0
-412 5921 0
-416 5921 0
-418 5921 0
-428 5921 0
-430 5921 0
-434 5921 0
-436 5921 0
-440 5921 0
-442 5921 0
-455 5921 0
-457 5921 0
-461 5921 0
-463 5921 0
-467 5921 0
-472 5921 0
-474 5921 0
-475 5921 0
-477 5921 0
-491 5921 0
-493 5921 0
-497 5921 0
-499 5921 0
-505 5921 0
-507 5921 0
-508 5921 0
-510 5921 0
-515 5921 0
-5921 477 404 436 467 507 463 515 472 410 455 442 461 475 434 499 418 416 508 430 474 412 505 493 440 497 457 510 428 491 406 0
-5922 0
-1546 5923 0
-1547 5923 0
-1548 5923 0
-1556 5923 0
5923 -1557 0
-1561 5923 0
-1562 5923 0
-1563 5923 0
-1564 5923 0
-1565 5923 0
-1566 5923 0
-1567 5923 0
-1568 5923 0
-1569 5923 0
-1570 5923 0
-1571 5923 0
-1572 5923 0
-1578 5923 0
-1579 5923 0
-1585 5923 0
-1586 5923 0
-1587 5923 0
-5923 1585 1565 1568 1553 1562 1561 1556 1557 1563 1579 1546 1566 1567 1552 1569 1570 1571 1572 1547 1548 1564 1586 1587 1578 0
-5924 0
-5925 0
-5926 0
-5927 0
-5928 0
-5919 -5921 0
-5919 -5923 0
-5921 -5923 0
5919 5923 5921 5922 5920 5924 5925 5926 5927 5928 0
-157 5929 0
-159 5929 0
-198 5929 0
-5929 185 158 178 159 195 171 187 196 191 177 186 176 198 179 188 189 164 174 157 192 169 184 165 182 190 155 154 183 170 175 197 156 163 0
-5930 0
-429 5931 0
-490 5931 0
-511 5931 0
-516 5931 0
-5931 496 452 435 544 485 501 511 502 514 429 490 518 398 449 400 500 421 516 542 469 523 483 405 431 528 445 415 473 479 402 531 441 537 439 533 444 506 450 420 407 437 447 489 498 426 443 520 543 521 478 512 487 529 462 539 545 495 519 534 464 0
-5932 0
-1543 5933 0
-1571 5933 0
-1585 5933 0
-5933 1580 1560 1549 1584 1571 1587 1585 1574 1588 1575 1586 1570 1581 1545 1582 1565 1559 1572 1577 1564 1589 1558 1590 1551 1566 1543 1550 1544 1583 1554 1555 1573 1576 0
-5934 0
-5935 0
-5936 0
-5937 0
-5938 0
-5931 -5933 -5929 0
5931 5929 5930 5932 5934 5935 5936 5937 5938 0
5929 5933 5932 5930 5934 5935 5936 5937 5938 0
5931 5933 5932 5930 5934 5935 5936 5937 5938 0
-5939 0
-5940 0
-5941 501 404 469 502 398 496 444 487 421 542 518 428 430 400 452 474 490 436 507 442 461 402 511 457 523 455 445 405 407 420 416 418 434 439 406 463 499 410 528 491 431 520 415 497 426 495 529 505 450 478 489 493 544 440 516 514 429 412 472 534 0
-5942 0
-5943 0
-5944 0
-1741 5945 0
-1742 5945 0
-1743 5945 0
-1744 5945 0
-1745 5945 0
-1746 5945 0
-1747 5945 0
-1748 5945 0
-1749 5945 0
-1756 5945 0
-1757 5945 0
-1758 5945 0
-1772 5945 0
-1773 5945 0
-1774 5945 0
-1775 5945 0
-1776 5945 0
-1780 5945 0
-1781 5945 0
-1782 5945 0
-1786 5945 0
-1787 5945 0
-5945 1756 1746 1771 1772 1763 1780 1775 1765 1757 1787 1750 1749 1773 1758 1747 1748 1781 1744 1786 1774 1776 1745 1764 1762 1742 1788 1782 1743 1741 1752 1753 1754 1751 1755 1766 1767 1768 1769 1770 0
-5946 0
-2138 5947 0
-2139 5947 0
-2145 5947 0
-2159 5947 0
-5947 2179 2138 2149 2184 2167 2160 2166 2151 2141 2164 2175 2176 2150 2143 2147 2148 2153 2162 2168 2169 2171 2161 2154 2146 2163 2142 2139 2170 2159 2177 2140 2144 2165 2152 2137 2145 2155 2183 2178 0
-5948 0
5941 5945 5939 5942 5943 5944 5940 5946 5948 0
5947 5941 5939 5942 5943 5944 5946 5940 5948 0
-5949 0
-5950 0
-397 5951 0
-403 5951 0
-408 5951 0
-409 5951 0
-414 5951 0
-422 5951 0
-424 5951 0
-427 5951 0
-432 5951 0
-433 5951 0
-435 5951 0
-437 5951 0
-438 5951 0
-441 5951 0
-443 5951 0
-446 5951 0
-447 5951 0
-448 5951 0
-449 5951 0
-454 5951 0
-459 5951 0
-462 5951 0
-464 5951 0
-465 5951 0
-466 5951 0
-470 5951 0
-473 5951 0
-479 5951 0
-482 5951 0
-483 5951 0
-484 5951 0
-506 5951 0
-5951 533 435 503 443 506 538 543 397 500 451 485 484 521 479 453 427 409 414 460 512 482 437 462 438 488 422 446 454 432 537 433 473 399 470 441 524 447 401 466 424 476 465 464 449 448 498 509 519 530 483 459 403 531 468 545 526 532 408 536 539 0
-5952 0
-5953 0
-5954 0
-1741 5955 0
-1742 5955 0
-1743 5955 0
-1747 5955 0
-1748 5955 0
-1749 5955 0
-1756 5955 0
-1757 5955 0
-1758 5955 0
-1759 5955 0
-1760 5955 0
-1761 5955 0
-1762 5955 0
-1763 5955 0
-1764 5955 0
-1774 5955 0
-1775 5955 0
-1776 5955 0
-1777 5955 0
-1778 5955 0
-1779 5955 0
-1780 5955 0
-1781 5955 0
-1782 5955 0
-1783 5955 0
-1784 5955 0
-1785 5955 0
-5955 1756 1749 1767 1783 1775 1777 1750 1763 1747 1782 1758 1741 1757 1762 1759 1751 1776 1774 1755 1778 1784 1785 1779 1760 1764 1743 1742 1748 1761 1781 1780 1754 1768 0
-5956 0
-2151 5957 0
-2152 5957 0
-2161 5957 0
-2162 5957 0
-2163 5957 0
-2167 5957 0
-2168 5957 0
-2169 5957 0
-2170 5957 0
-2171 5957 0
-5957 2182 2138 2148 2154 2147 2155 2152 2146 2158 2153 2149 2157 2171 2170 2161 2156 2169 2172 2162 2173 2180 2167 2174 2150 2139 2163 2142 2168 2181 2151 2141 2140 2137 0
-5958 0
-5957 -5951 -5955 0
5951 5955 5949 5952 5953 5954 5950 5956 5958 0
5957 5951 5949 5952 5953 5954 5956 5950 5958 0
-5959 0
-5960 0
-413 5961 0
-419 5961 0
-423 5961 0
-425 5961 0
-458 5961 0
-467 5961 0
-475 5961 0
-477 5961 0
-480 5961 0
-481 5961 0
-486 5961 0
-492 5961 0
-494 5961 0
-508 5961 0
-513 5961 0
-517 5961 0
-522 5961 0
-525 5961 0
-527 5961 0
-535 5961 0
-540 5961 0
-541 5961 0
-546 5961 0
-5961 515 467 494 477 535 417 411 508 458 527 546 504 481 413 456 475 517 471 522 423 486 492 419 541 425 480 510 540 513 525 0
-5962 0
-5963 0
-5964 0
-1744 5965 0
-1745 5965 0
-1746 5965 0
-1752 5965 0
-1753 5965 0
-1759 5965 0
-1760 5965 0
-1761 5965 0
-1769 5965 0
-1770 5965 0
-1771 5965 0
-1772 5965 0
-1773 5965 0
-1777 5965 0
-1778 5965 0
-1779 5965 0
-1784 5965 0
-1785 5965 0
-1786 5965 0
-1787 5965 0
-1788 5965 0
-5965 1772 1745 1759 1760 1783 1770 1778 1761 1784 1787 1788 1779 1777 1771 1785 1786 1746 1753 1773 1752 1744 1765 1769 1766 0
-5966 0
-2143 5967 0
-2144 5967 0
-2145 5967 0
-2156 5967 0
-2158 5967 0
-2164 5967 0
-2165 5967 0
-2166 5967 0
-2172 5967 0
-2173 5967 0
-2174 5967 0
-2175 5967 0
-2176 5967 0
-2177 5967 0
-2178 5967 0
-2179 5967 0
-2180 5967 0
-2181 5967 0
-2182 5967 0
-2183 5967 0
-2184 5967 0
-5967 2173 2143 2159 2179 2158 2174 2184 2164 2145 2182 2175 2156 2165 2172 2183 2160 2180 2178 2144 2157 2176 2181 2166 2177 0
-5968 0
-5961 -5965 0
-5961 -5967 0
-5965 -5967 0
5965 5961 5967 5962 5963 5964 5960 5966 5959 5968 0
-373 5969 0
-374 5969 0
-375 5969 0
-380 5969 0
-381 5969 0
-394 5969 0
-395 5969 0
-396 5969 0
-436 5971 0
-438 5971 0
-442 5971 0
-444 5971 0
-448 5971 0
-450 5971 0
-463 5971 0
-465 5971 0
-474 5971 0
-480 5971 0
-484 5971 0
-486 5971 0
-499 5971 0
-501 5971 0
-507 5971 0
-511 5971 0
-513 5971 0
-516 5971 0
-520 5971 0
-522 5971 0
-532 5971 0
-534 5971 0
-538 5971 0
-540 5971 0
-544 5971 0
-546 5971 0
-1366 5973 0
-1367 5973 0
5973 -1368 0
-1384 5973 0
-1385 5973 0
-1386 5973 0
-1390 5973 0
-1391 5973 0
-1392 5973 0
-5973 1392 1368 1385 1391 1386 1366 1384 1367 1390 0
-1567 5975 0
-1568 5975 0
-1569 5975 0
-1573 5975 0
-1574 5975 0
-1575 5975 0
-1588 5975 0
-1589 5975 0
-1590 5975 0
-5975 1588 1574 1590 1575 1569 1568 1589 1567 1573 0
-1762 5977 0
-1763 5977 0
-1764 5977 0
-1780 5977 0
-1781 5977 0
-1782 5977 0
-1786 5977 0
5977 -1787 0
-1788 5977 0
-5969 -5971 0
-5969 -5973 0
-5969 -5977 0
-5971 -5973 0
-5971 -5975 0
-5975 -5973 0
-5975 -5977 0
-352 5979 0
-353 5979 0
-354 5979 0
-355 5979 0
-356 5979 0
-357 5979 0
-367 5979 0
-369 5979 0
-388 5979 0
-389 5979 0
-393 5979 0
-5979 393 363 385 352 391 388 357 354 367 384 369 353 377 378 368 362 386 387 356 389 390 376 392 355 0
-5980 0
-399 5981 0
-401 5981 0
-408 5981 0
-422 5981 0
-432 5981 0
-443 5981 0
-446 5981 0
-449 5981 0
5981 -453 0
-470 5981 0
5981 -477 0
-488 5981 0
-489 5981 0
-494 5981 0
-500 5981 0
5981 -503 0
-517 5981 0
-519 5981 0
-524 5981 0
-527 5981 0
-530 5981 0
-533 5981 0
-541 5981 0
-543 5981 0
-5982 0
-1351 5983 0
-1352 5983 0
-1353 5983 0
-1373 5983 0
-1378 5983 0
-1379 5983 0
-1387 5983 0
-1388 5983 0
-5983 1374 1389 1379 1380 1371 1378 1359 1353 1358 1387 1352 1351 1372 1388 1373 0
-5984 0
-1546 5985 0
-1547 5985 0
-1548 5985 0
-1549 5985 0
-1550 5985 0
-1551 5985 0
5985 -1557 0
-1561 5985 0
-1562 5985 0
-1563 5985 0
-1570 5985 0
-1571 5985 0
-1572 5985 0
-1580 5985 0
-1582 5985 0
-1584 5985 0
-1585 5985 0
-5985 1571 1546 1562 1557 1572 1563 1584 1585 1579 1550 1583 1581 1561 1549 1547 1548 1582 1570 1586 1580 1578 1551 1587 1556 0
-5986 0
-1747 5987 0
-1748 5987 0
-1767 5987 0
-1768 5987 0
-1770 5987 0
-1774 5987 0
-1776 5987 0
-1783 5987 0
-1785 5987 0
-5987 1775 1749 1770 1783 1747 1784 1754 1785 1774 1748 1776 1767 1768 1769 1755 0
-5988 0
-5979 -5981 -5983 0
-5979 -5983 -5985 0
-5979 -5987 -5985 0
-5983 -5981 -5985 0
-5981 -5987 -5985 0
5983 5979 5985 5987 5984 5982 5986 5980 5988 0
-359 5989 0
-372 5989 0
-5989 372 349 365 366 361 371 370 350 364 359 383 382 360 358 351 0
-5990 0
-407 5991 0
-421 5991 0
-452 5991 0
-469 5991 0
-487 5991 0
-502 5991 0
-523 5991 0
-529 5991 0
-5991 502 469 535 435 462 458 407 496 487 413 508 411 452 481 490 429 398 525 434 405 421 531 410 439 473 445 447 403 506 529 428 451 460 417 461 404 427 498 467 456 471 464 441 423 483 400 437 433 409 415 397 504 431 455 492 475 523 454 466 537 0
-5992 0
-1346 5993 0
-5993 1375 1345 1347 1361 1363 1357 1355 1381 1365 1362 1370 1346 1364 1383 1360 1356 1354 1376 1349 1382 1377 1369 1348 1350 0
-5994 0
-1554 5995 0
-1558 5995 0
-1560 5995 0
-5995 1576 1565 1552 1545 1544 1554 1553 1564 1560 1543 1559 1566 1558 1555 1577 0
-5996 0
-1741 5997 0
-1742 5997 0
-1743 5997 0
-1744 5997 0
-1745 5997 0
-1757 5997 0
-1758 5997 0
-1759 5997 0
-1760 5997 0
-1761 5997 0
-1771 5997 0
-1772 5997 0
-1773 5997 0
-5997 1756 1741 1766 1760 1759 1772 1750 1743 1745 1744 1765 1778 1742 1757 1771 1773 1779 1761 1752 1753 1758 1751 1777 1746 0
-5998 0
-5993 -5991 -5997 0
5989 5991 5993 5995 5990 5994 5992 5996 5998 0
5989 5997 5995 5993 5994 5992 5996 5990 5998 0
5997 5993 5995 5991 5994 5992 5996 5990 5998 0
-350 5999 0
-365 5999 0
-372 5999 0
-393 5999 0
-5999 370 352 360 388 369 358 349 359 353 385 351 354 361 356 363 364 365 366 367 368 393 357 350 372 376 377 378 382 383 384 362 386 387 391 389 390 355 392 371 0
-6000 0
-397 6001 0
-398 6001 0
-400 6001 0
-407 6001 0
-410 6001 0
-413 6001 0
-414 6001 0
-420 6001 0
-421 6001 0
-423 6001 0
-426 6001 0
-428 6001 0
-431 6001 0
-437 6001 0
-445 6001 0
-447 6001 0
-451 6001 0
-452 6001 0
-457 6001 0
-458 6001 0
-459 6001 0
-464 6001 0
-466 6001 0
-469 6001 0
-479 6001 0
-482 6001 0
-483 6001 0
-485 6001 0
-487 6001 0
-495 6001 0
-502 6001 0
-512 6001 0
-518 6001 0
-523 6001 0
-525 6001 0
-528 6001 0
-529 6001 0
-531 6001 0
-536 6001 0
-537 6001 0
-539 6001 0
-542 6001 0
-6001 536 407 437 469 485 502 447 452 404 398 451 397 434 458 467 410 423 483 431 445 400 428 420 455 413 421 518 461 426 457 466 464 472 475 479 481 482 487 412 523 493 526 508 505 418 512 542 521 535 525 459 528 495 531 529 424 537 539 414 545 0
-6002 0
-6003 0
-6004 0
-1543 6005 0
-1544 6005 0
-1558 6005 0
-1559 6005 0
-1560 6005 0
-1561 6005 0
-1562 6005 0
-1564 6005 0
-1565 6005 0
-1566 6005 0
-1571 6005 0
-1582 6005 0
-1583 6005 0
-1584 6005 0
-1585 6005 0
-6005 1557 1545 1565 1562 1547 1558 1564 1550 1551 1543 1553 1581 1555 1552 1549 1548 1560 1561 1559 1563 1584 1585 1566 1570 1571 1572 1544 1580 1576 1577 1578 1579 1582 1583 1556 1546 1586 1587 1554 0
-6006 0
-6007 0
-6008 0
-6001 -6005 -5999 0
5999 6001 6000 6002 6003 6004 6006 6007 6008 0
6005 5999 6002 6003 6004 6000 6006 6007 6008 0
6005 6001 6002 6003 6004 6000 6006 6007 6008 0
-349 6009 0
-350 6009 0
-351 6009 0
-364 6009 0
-365 6009 0
-366 6009 0
-370 6009 0
-371 6009 0
-372 6009 0
-373 6009 0
-375 6009 0
-379 6009 0
-380 6009 0
-381 6009 0
-394 6009 0
-395 6009 0
-396 6009 0
-6009 372 350 360 374 381 394 365 364 349 383 351 366 359 380 396 361 395 379 371 382 375 373 370 358 0
-6010 0
-403 6011 0
-405 6011 0
-409 6011 0
-411 6011 0
-415 6011 0
-417 6011 0
-427 6011 0
-429 6011 0
-433 6011 0
-435 6011 0
-439 6011 0
-441 6011 0
-454 6011 0
-456 6011 0
-460 6011 0
-462 6011 0
-468 6011 0
-471 6011 0
-473 6011 0
-476 6011 0
-478 6011 0
-490 6011 0
-492 6011 0
-496 6011 0
-498 6011 0
-504 6011 0
-506 6011 0
-509 6011 0
-511 6011 0
-516 6011 0
-6011 509 462 411 454 435 456 468 403 439 496 471 504 460 427 516 511 506 490 492 473 429 409 478 417 433 415 405 476 498 441 0
-6012 0
-6013 0
-6014 0
-1543 6015 0
-1544 6015 0
-1545 6015 0
-1558 6015 0
-1559 6015 0
-1560 6015 0
-1564 6015 0
-1565 6015 0
-1566 6015 0
-1567 6015 0
-1568 6015 0
-1569 6015 0
-1573 6015 0
-1574 6015 0
-1575 6015 0
-1588 6015 0
-1589 6015 0
-1590 6015 0
-6015 1565 1545 1576 1568 1554 1553 1567 1564 1560 1544 1559 1566 1543 1552 1569 1573 1574 1575 1558 1555 1588 1589 1590 1577 0
-6016 0
-6017 0
-6018 0
-6009 -6011 0
-6009 -6015 0
-6011 -6015 0
6011 6009 6015 6012 6013 6014 6010 6016 6017 6018 0
-369 6019 0
-375 6019 0
-381 6019 0
-393 6019 0
-394 6019 0
-395 6019 0
-6019 363 355 388 374 393 373 369 357 367 368 354 384 385 375 379 377 378 352 380 381 353 362 386 387 356 389 390 376 392 394 395 396 391 0
-6020 0
-399 6021 0
-401 6021 0
-402 6021 0
-406 6021 0
-408 6021 0
-416 6021 0
-419 6021 0
-422 6021 0
-425 6021 0
-430 6021 0
-432 6021 0
-438 6021 0
-440 6021 0
-443 6021 0
-444 6021 0
-446 6021 0
-448 6021 0
-449 6021 0
-453 6021 0
-465 6021 0
-470 6021 0
-477 6021 0
-480 6021 0
-484 6021 0
-488 6021 0
-489 6021 0
-491 6021 0
-494 6021 0
-497 6021 0
-500 6021 0
-501 6021 0
-503 6021 0
-510 6021 0
-513 6021 0
-514 6021 0
-515 6021 0
-517 6021 0
-520 6021 0
-522 6021 0
-524 6021 0
-527 6021 0
-530 6021 0
-532 6021 0
-533 6021 0
-538 6021 0
-541 6021 0
-544 6021 0
-546 6021 0
-6021 501 443 530 533 406 514 544 436 448 401 522 440 484 541 507 399 419 416 517 527 546 463 446 499 503 474 438 480 425 488 450 486 491 442 432 497 500 449 453 494 510 513 465 515 489 422 470 519 444 520 524 534 532 430 402 408 540 477 543 538 0
-6022 0
-6023 0
-6024 0
-1546 6025 0
-1547 6025 0
-1549 6025 0
-1550 6025 0
-1561 6025 0
-1562 6025 0
-1563 6025 0
-1569 6025 0
-1571 6025 0
-1572 6025 0
-1574 6025 0
-1575 6025 0
-1584 6025 0
-6025 1584 1568 1571 1562 1557 1574 1546 1585 1563 1569 1590 1575 1548 1582 1550 1583 1561 1570 1586 1588 1572 1581 1580 1573 1587 1567 1589 1547 1549 1578 1551 1556 1579 0
-6026 0
-6027 0
-6028 0
-6019 -6021 -6025 0
6021 6019 6020 6022 6023 6024 6026 6027 6028 0
6025 6021 6022 6023 6024 6020 6026 6027 6028 0
-6029 0
-6030 0
-456 6031 0
-462 6031 0
-471 6031 0
-473 6031 0
-492 6031 0
-498 6031 0
-504 6031 0
-506 6031 0
-6031 514 453 435 496 462 403 409 533 524 419 456 490 530 473 503 429 402 527 477 515 543 517 416 433 488 446 439 415 460 427 470 425 443 405 471 440 454 449 441 430 417 411 519 497 498 504 422 406 500 506 399 491 432 541 489 492 494 510 408 401 0
-6032 0
-1345 6033 0
-1347 6033 0
-1348 6033 0
-1350 6033 0
-1360 6033 0
-1362 6033 0
-1363 6033 0
-1365 6033 0
-1375 6033 0
-1376 6033 0
-1381 6033 0
-1383 6033 0
-1388 6033 0
-6033 1356 1347 1350 1349 1389 1365 1363 1345 1375 1358 1380 1357 1383 1352 1379 1381 1346 1364 1351 1361 1387 1372 1378 1360 1362 1388 1376 1348 1377 1353 1370 1359 1371 1354 1374 1355 1382 1369 1373 0
-6034 0
-6035 0
-6036 0
-1741 6037 0
-1742 6037 0
-1743 6037 0
-1744 6037 0
-1745 6037 0
-1747 6037 0
-1748 6037 0
-1749 6037 0
-1756 6037 0
-1757 6037 0
-1758 6037 0
-1759 6037 0
-1760 6037 0
-1761 6037 0
-1771 6037 0
-1772 6037 0
-1773 6037 0
-1774 6037 0
-1775 6037 0
-1776 6037 0
-1777 6037 0
-1778 6037 0
-1779 6037 0
-1783 6037 0
-1785 6037 0
-6037 1783 1744 1756 1772 1757 1771 1766 1759 1750 1777 1742 1784 1748 1760 1779 1761 1743 1773 1774 1775 1776 1741 1747 1749 1758 1745 1785 1765 1751 1752 1753 1754 1755 1778 1746 1767 1768 1769 1770 0
-6038 0
-6031 -6033 -6037 0
6031 6033 6029 6032 6030 6034 6035 6036 6038 0
6037 6031 6029 6032 6034 6035 6036 6030 6038 0
-6039 0
-6040 0
-6041 501 437 469 486 502 534 452 475 421 474 480 458 508 455 404 451 447 523 450 407 436 467 444 400 544 442 398 466 434 410 461 423 445 431 448 481 483 484 465 487 438 413 397 507 464 513 520 522 499 525 529 428 531 463 535 537 532 540 538 546 0
-6042 0
-6043 1356 1347 1392 1350 1363 1367 1368 1381 1364 1345 1365 1377 1370 1357 1386 1385 1361 1346 1383 1362 1384 1382 1360 1375 1348 1349 1355 1366 1390 1376 1354 1391 1369 0
-6044 0
-6045 0
-6046 0
-1778 6047 0
-1779 6047 0
-6047 1756 1742 1750 1759 1760 1761 1771 1779 1773 1787 1745 1758 1778 1744 1777 1741 1763 1762 1757 1788 1746 1765 1786 1781 1782 1743 1780 1764 1772 1753 1752 1751 1766 0
-6048 0
6041 6043 6039 6042 6040 6044 6045 6046 6048 0
6047 6041 6039 6042 6044 6045 6046 6040 6048 0
6047 6043 6042 6039 6044 6045 6046 6040 6048 0
-412 6051 0
-414 6051 0
-418 6051 0
-420 6051 0
-424 6051 0
-426 6051 0
-457 6051 0
-459 6051 0
-468 6051 0
-472 6051 0
-476 6051 0
-478 6051 0
-479 6051 0
-482 6051 0
-485 6051 0
-493 6051 0
-495 6051 0
-505 6051 0
-509 6051 0
-511 6051 0
-512 6051 0
-516 6051 0
-521 6051 0
-526 6051 0
-528 6051 0
-536 6051 0
-539 6051 0
-542 6051 0
-545 6051 0
-1351 6053 0
-1352 6053 0
-1353 6053 0
-1358 6053 0
-1359 6053 0
-1366 6053 0
-1367 6053 0
-1368 6053 0
-1371 6053 0
-1372 6053 0
-1373 6053 0
-1374 6053 0
-1378 6053 0
-1379 6053 0
-1380 6053 0
-1384 6053 0
-1385 6053 0
-1386 6053 0
-1387 6053 0
-1388 6053 0
-1389 6053 0
-1390 6053 0
-1391 6053 0
-1392 6053 0
-6053 1387 1352 1359 1368 1384 1366 1386 1351 1392 1379 1374 1367 1380 1358 1385 1372 1353 1388 1389 1390 1371 1391 1378 1373 0
-1747 6057 0
-1748 6057 0
-1749 6057 0
-1755 6057 0
-1762 6057 0
-1763 6057 0
-1764 6057 0
-1767 6057 0
-1768 6057 0
-1769 6057 0
-1774 6057 0
-1775 6057 0
-1776 6057 0
-1780 6057 0
-1781 6057 0
-1782 6057 0
6057 -1783 0
-1784 6057 0
-1785 6057 0
-1786 6057 0
6057 -1787 0
-1788 6057 0
-6057 1784 1749 1774 1783 1775 1780 1762 1787 1786 1782 1764 1770 1785 1788 1763 1747 1781 1776 1748 1755 1769 1767 1754 1768 0
-6051 -6053 0
-6051 -6057 0
-6053 -6057 0
-172 6059 0
-173 6059 0
-180 6059 0
-181 6059 0
-182 6059 0
-183 6059 0
-193 6059 0
-194 6059 0
-195 6059 0
-196 6059 0
-197 6059 0
-198 6059 0
-6059 196 183 198 194 173 180 181 197 172 182 195 193 0
-6060 0
-1084 6061 0
-1086 6061 0
-1090 6061 0
-1092 6061 0
-1096 6061 0
-1098 6061 0
-1111 6061 0
-1113 6061 0
-1116 6061 0
-1122 6061 0
-1124 6061 0
-1126 6061 0
-1128 6061 0
-1132 6061 0
-1134 6061 0
-1147 6061 0
-1149 6061 0
-1155 6061 0
-1157 6061 0
-1159 6061 0
-1161 6061 0
-1164 6061 0
-1168 6061 0
-1170 6061 0
-1180 6061 0
-1182 6061 0
-1186 6061 0
-1188 6061 0
-1192 6061 0
-1194 6061 0
-6061 1192 1116 1090 1134 1149 1168 1113 1122 1126 1132 1188 1155 1084 1194 1124 1092 1128 1161 1111 1159 1157 1098 1182 1170 1096 1164 1086 1180 1147 1186 0
-6062 0
-1630 6063 0
-1636 6063 0
-1638 6063 0
-1642 6063 0
-1644 6063 0
-1657 6063 0
-1659 6063 0
-1662 6063 0
-1668 6063 0
-1670 6063 0
-1672 6063 0
-1674 6063 0
-1678 6063 0
-1680 6063 0
-1693 6063 0
-1695 6063 0
-1701 6063 0
-1703 6063 0
-1705 6063 0
-1707 6063 0
-1710 6063 0
-1714 6063 0
-1716 6063 0
-1726 6063 0
-1728 6063 0
-1732 6063 0
-1734 6063 0
-1738 6063 0
-1740 6063 0
-6063 1728 1670 1632 1657 1668 1701 1680 1703 1740 1705 1695 1630 1714 1716 1662 1644 1726 1674 1636 1710 1678 1638 1707 1659 1693 1732 1672 1642 1734 1738 0
-6064 0
-1828 6065 0
-1830 6065 0
-1834 6065 0
-1836 6065 0
-1840 6065 0
-1842 6065 0
-1855 6065 0
-1857 6065 0
-1860 6065 0
-1866 6065 0
-1868 6065 0
-1870 6065 0
-1872 6065 0
-1876 6065 0
-1878 6065 0
-1891 6065 0
-1893 6065 0
-1899 6065 0
-1903 6065 0
-1905 6065 0
-1912 6065 0
-1914 6065 0
-1924 6065 0
-1926 6065 0
-1930 6065 0
-1932 6065 0
-1936 6065 0
-1938 6065 0
-6065 1903 1836 1842 1876 1914 1872 1840 1860 1930 1905 1901 1870 1932 1926 1908 1936 1899 1828 1834 1866 1855 1868 1938 1857 1912 1891 1893 1924 1878 1830 0
-6066 0
-2149 6067 0
-2150 6067 0
-2154 6067 0
-2155 6067 0
-2159 6067 0
-2160 6067 0
-2170 6067 0
-2171 6067 0
-2175 6067 0
-2176 6067 0
-2183 6067 0
-2184 6067 0
-6067 2184 2149 2183 2159 2171 2155 2170 2154 2176 2175 2150 2160 0
-6068 0
-6061 -6059 0
-6063 -6059 0
-6059 -6065 0
-6059 -6067 0
-6061 -6063 0
-6061 -6065 0
-6061 -6067 0
-6065 -6063 0
-6063 -6067 0
6061 6063 6059 6065 6067 6064 6062 6066 6060 6068 0
-6069 0
-6070 0
-1047 6071 0
-1056 6071 0
-1060 6071 0
-1070 6071 0
-1080 6071 0
-1088 6071 0
-1107 6071 0
-1118 6071 0
-1130 6071 0
-1136 6071 0
-1139 6071 0
-1143 6071 0
-1151 6071 0
-1158 6071 0
-1163 6071 0
-1167 6071 0
-1172 6071 0
-1178 6071 0
-1187 6071 0
-1193 6071 0
-6071 1163 1047 1133 1091 1193 1118 1127 1191 1148 1120 1143 1064 1187 1172 1050 1137 1189 1175 1125 1158 1184 1136 1139 1169 1178 1151 1141 1066 1174 1145 1062 1088 1080 1101 1190 1074 1166 1060 1072 1105 1130 1068 1160 1153 1056 1097 1167 1165 1070 1054 1067 1162 1078 1094 1181 1176 1107 1142 1049 1073 0
-6072 0
-1593 6073 0
-1596 6073 0
-1600 6073 0
-1602 6073 0
-1606 6073 0
-1608 6073 0
-1613 6073 0
-1614 6073 0
-1619 6073 0
-1620 6073 0
-1624 6073 0
-1637 6073 0
-1643 6073 0
-1647 6073 0
-1651 6073 0
-1653 6073 0
-1666 6073 0
-1671 6073 0
-1679 6073 0
-1682 6073 0
-1683 6073 0
-1685 6073 0
-1687 6073 0
-1688 6073 0
-1689 6073 0
-1691 6073 0
-1694 6073 0
-1697 6073 0
-1699 6073 0
-1704 6073 0
-1706 6073 0
-1708 6073 0
-1709 6073 0
-1712 6073 0
-1715 6073 0
-1718 6073 0
-1720 6073 0
-1721 6073 0
-1722 6073 0
-1724 6073 0
-1727 6073 0
-1730 6073 0
-1733 6073 0
-1735 6073 0
-1736 6073 0
-1737 6073 0
-6073 1709 1593 1666 1704 1671 1688 1676 1739 1620 1610 1619 1697 1720 1614 1718 1715 1602 1689 1724 1653 1647 1682 1595 1722 1640 1727 1634 1679 1608 1687 1735 1691 1673 1699 1626 1651 1708 1694 1683 1612 1606 1706 1616 1643 1637 1685 1624 1618 1736 1713 1711 1737 1712 1730 1733 1613 1664 1721 1596 1600 0
-6074 0
-1791 6075 0
-1794 6075 0
-1798 6075 0
-1800 6075 0
-1804 6075 0
-1806 6075 0
-1811 6075 0
-1812 6075 0
-1817 6075 0
-1818 6075 0
-1822 6075 0
-1824 6075 0
-1835 6075 0
-1841 6075 0
-1845 6075 0
-1849 6075 0
-1851 6075 0
-1862 6075 0
-1864 6075 0
-1869 6075 0
-1871 6075 0
-1874 6075 0
-1877 6075 0
-1880 6075 0
-1881 6075 0
-1886 6075 0
-1887 6075 0
-1892 6075 0
-1895 6075 0
-1897 6075 0
-1902 6075 0
-1904 6075 0
-1906 6075 0
-1910 6075 0
-1919 6075 0
-1920 6075 0
-1925 6075 0
-1928 6075 0
-1931 6075 0
-1934 6075 0
-6075 1937 1881 1845 1838 1883 1933 1841 1791 1811 1871 1877 1874 1889 1885 1824 1931 1817 1918 1897 1818 1832 1851 1808 1892 1862 1864 1869 1880 1804 1806 1812 1800 1934 1849 1935 1886 1816 1909 1895 1798 1794 1814 1906 1907 1810 1911 1822 1902 1910 1887 1904 1919 1793 1835 1916 1920 1922 1928 1925 1913 0
-6076 0
-2137 6077 0
-2138 6077 0
-2139 6077 0
-2140 6077 0
-2141 6077 0
-2142 6077 0
-2143 6077 0
-2144 6077 0
-2145 6077 0
-2146 6077 0
-2147 6077 0
-2148 6077 0
-2151 6077 0
-2152 6077 0
-2153 6077 0
-2156 6077 0
-2157 6077 0
-2158 6077 0
-2161 6077 0
-2162 6077 0
-2163 6077 0
-2164 6077 0
-2165 6077 0
-2166 6077 0
-2167 6077 0
-2168 6077 0
-2169 6077 0
-2172 6077 0
-2173 6077 0
-2174 6077 0
-2177 6077 0
-2178 6077 0
-2179 6077 0
-2180 6077 0
-2181 6077 0
-2182 6077 0
-6077 2158 2138 2177 2137 2182 2148 2180 2173 2178 2147 2141 2145 2156 2144 2142 2162 2166 2168 2143 2169 2164 2174 2163 2153 2167 2146 2161 2165 2139 2152 2179 2140 2151 2157 2181 2172 0
-6078 0
-6071 -6073 -6075 0
-6071 -6073 -6077 0
-6071 -6077 -6075 0
-6073 -6077 -6075 0
6073 6071 6075 6072 6070 6074 6069 6076 6078 0
6073 6077 6071 6072 6070 6074 6076 6069 6078 0
6077 6073 6075 6069 6074 6070 6076 6072 6078 0
-152 6079 0
-155 6079 0
-157 6079 0
-158 6079 0
-159 6079 0
-160 6079 0
-161 6079 0
-162 6079 0
-163 6079 0
-164 6079 0
-165 6079 0
-166 6079 0
-167 6079 0
-168 6079 0
-170 6079 0
-174 6079 0
-175 6079 0
-176 6079 0
-177 6079 0
-178 6079 0
-184 6079 0
-185 6079 0
-186 6079 0
-187 6079 0
-188 6079 0
-189 6079 0
-190 6079 0
-191 6079 0
-192 6079 0
-6079 185 159 169 151 176 191 163 161 178 158 175 160 157 177 179 187 192 171 184 186 188 155 166 189 164 174 170 168 156 162 154 153 167 190 165 152 0
-6080 0
-1046 6081 0
-1051 6081 0
-1055 6081 0
-1057 6081 0
-1059 6081 0
-1065 6081 0
-1069 6081 0
-1083 6081 0
-1100 6081 0
-1102 6081 0
-1106 6081 0
-1108 6081 0
-1110 6081 0
-1112 6081 0
-1119 6081 0
-1131 6081 0
-6081 1135 1114 1100 1119 1065 1051 1061 1059 1079 1083 1089 1052 1108 1085 1112 1109 1057 1071 1185 1093 1171 1095 1146 1069 1131 1140 1154 1081 1076 1138 1144 1055 1053 1045 1150 1177 1104 1121 1123 1117 1075 1063 1106 1048 1046 1103 1129 1102 1077 1087 1110 1115 1058 1152 1156 1173 1099 1082 1179 1183 0
-6082 0
-1591 6083 0
-1592 6083 0
-1594 6083 0
-1598 6083 0
-1601 6083 0
-1603 6083 0
-1609 6083 0
-1617 6083 0
-1621 6083 0
-1622 6083 0
-1623 6083 0
-1625 6083 0
-1627 6083 0
-1633 6083 0
-1641 6083 0
-1645 6083 0
-1646 6083 0
-1648 6083 0
-1649 6083 0
-1650 6083 0
-1652 6083 0
-1655 6083 0
-1656 6083 0
-1658 6083 0
-1660 6083 0
-1661 6083 0
-1663 6083 0
-1669 6083 0
-1675 6083 0
-1677 6083 0
-1681 6083 0
-1684 6083 0
-1686 6083 0
-1692 6083 0
-1696 6083 0
-1702 6083 0
-1717 6083 0
-1719 6083 0
-1725 6083 0
-6083 1696 1645 1621 1652 1661 1649 1669 1667 1731 1654 1594 1692 1684 1611 1650 1633 1675 1592 1623 1656 1639 1686 1723 1648 1660 1625 1615 1663 1646 1628 1635 1658 1605 1603 1631 1591 1597 1725 1690 1617 1677 1641 1598 1655 1702 1629 1627 1609 1599 1601 1681 1717 1604 1665 1622 1700 1607 1719 1698 1729 0
-6084 0
-1790 6085 0
-1797 6085 0
-1799 6085 0
-1801 6085 0
-1802 6085 0
-1803 6085 0
-1807 6085 0
-1813 6085 0
-1821 6085 0
-1823 6085 0
-1825 6085 0
-1826 6085 0
-1827 6085 0
-1829 6085 0
-1831 6085 0
-1833 6085 0
-1837 6085 0
-1839 6085 0
-1843 6085 0
-1844 6085 0
-1846 6085 0
-1847 6085 0
-1848 6085 0
-1850 6085 0
-1852 6085 0
-1853 6085 0
-1854 6085 0
-1856 6085 0
-1858 6085 0
-1859 6085 0
-1861 6085 0
-1863 6085 0
-1865 6085 0
-1867 6085 0
-1873 6085 0
-1875 6085 0
-1879 6085 0
-1882 6085 0
-1884 6085 0
-1888 6085 0
-1894 6085 0
-1896 6085 0
-1898 6085 0
-1915 6085 0
-1917 6085 0
-1921 6085 0
-1927 6085 0
-1929 6085 0
-6085 1843 1792 1861 1807 1879 1882 1799 1844 1796 1789 1852 1873 1837 1846 1820 1884 1831 1805 1929 1825 1802 1827 1829 1833 1819 1826 1839 1803 1815 1847 1848 1850 1858 1853 1854 1856 1915 1859 1821 1863 1795 1867 1797 1875 1823 1927 1790 1888 1890 1894 1865 1896 1900 1898 1917 1801 1923 1809 1813 1921 0
-6086 0
-6087 0
-6088 0
-6081 -6083 -6079 0
-6081 -6085 -6079 0
-6083 -6085 -6079 0
-6081 -6083 -6085 0
6079 6081 6083 6082 6080 6084 6086 6087 6088 0
6079 6085 6081 6082 6084 6080 6086 6087 6088 0
6079 6085 6083 6080 6084 6082 6086 6087 6088 0
6085 6081 6083 6080 6084 6082 6086 6087 6088 0
-151 6089 0
-152 6089 0
-153 6089 0
-154 6089 0
-155 6089 0
-156 6089 0
-157 6089 0
-158 6089 0
-159 6089 0
-160 6089 0
-161 6089 0
-162 6089 0
-163 6089 0
-164 6089 0
-165 6089 0
-166 6089 0
-167 6089 0
-168 6089 0
-169 6089 0
-170 6089 0
-171 6089 0
-174 6089 0
-175 6089 0
-176 6089 0
-177 6089 0
-178 6089 0
-179 6089 0
-184 6089 0
-185 6089 0
-186 6089 0
-187 6089 0
-188 6089 0
-189 6089 0
-190 6089 0
-191 6089 0
-192 6089 0
-6089 185 159 179 161 165 167 158 178 191 151 177 192 160 157 184 154 176 155 187 174 186 171 164 169 188 163 152 166 156 153 189 170 162 168 175 190 0
-6090 0
-1046 6091 0
-1048 6091 0
-1055 6091 0
-1060 6091 0
-1062 6091 0
-1066 6091 0
-1068 6091 0
-1069 6091 0
-1072 6091 0
-1074 6091 0
-1079 6091 0
-1082 6091 0
-1093 6091 0
-1100 6091 0
-1105 6091 0
-1107 6091 0
-1109 6091 0
-1115 6091 0
-1117 6091 0
-1120 6091 0
-1123 6091 0
-1127 6091 0
-1130 6091 0
-1133 6091 0
-1135 6091 0
-1141 6091 0
-1143 6091 0
-1150 6091 0
-1153 6091 0
-1156 6091 0
-1160 6091 0
-1166 6091 0
-1169 6091 0
-1171 6091 0
-1174 6091 0
-1176 6091 0
-1177 6091 0
-1184 6091 0
-1187 6091 0
-1190 6091 0
-1193 6091 0
-6091 1150 1123 1055 1066 1071 1061 1127 1129 1120 1072 1109 1190 1074 1112 1045 1046 1185 1100 1176 1117 1079 1099 1076 1062 1135 1166 1103 1177 1160 1156 1171 1187 1093 1069 1060 1131 1106 1153 1169 1133 1114 1095 1130 1174 1141 1193 1048 1058 1173 1082 1085 1143 1179 1115 1105 1052 1183 1184 1107 1068 0
-6092 0
-1591 6093 0
-1592 6093 0
-1594 6093 0
-1601 6093 0
-1615 6093 0
-1617 6093 0
-1618 6093 0
-1620 6093 0
-1622 6093 0
-1625 6093 0
-1639 6093 0
-1641 6093 0
-1645 6093 0
-1646 6093 0
-1649 6093 0
-1651 6093 0
-1653 6093 0
-1660 6093 0
-1661 6093 0
-1663 6093 0
-1669 6093 0
-1675 6093 0
-1676 6093 0
-1677 6093 0
-1679 6093 0
-1681 6093 0
-1687 6093 0
-1689 6093 0
-1696 6093 0
-1702 6093 0
-1712 6093 0
-1715 6093 0
-1717 6093 0
-1720 6093 0
-1722 6093 0
-1723 6093 0
-1725 6093 0
-6093 1702 1651 1661 1739 1652 1645 1663 1612 1618 1594 1675 1681 1649 1706 1614 1696 1620 1598 1679 1655 1669 1699 1641 1653 1606 1608 1639 1712 1720 1617 1601 1658 1715 1660 1725 1591 1676 1628 1731 1604 1631 1687 1607 1689 1722 1733 1723 1646 1615 1736 1625 1717 1719 1729 1673 1677 1730 1622 1592 1666 0
-6094 0
-1790 6095 0
-1813 6095 0
-1815 6095 0
-1843 6095 0
-1844 6095 0
-1879 6095 0
-6095 1879 1843 1861 1837 1937 1873 1900 1815 1789 1796 1799 1920 1928 1802 1887 1931 1877 1823 1820 1851 1839 1806 1792 1849 1847 1812 1853 1856 1859 1826 1858 1816 1867 1844 1850 1874 1790 1810 1829 1875 1897 1813 1818 1894 1871 1910 1927 1805 1917 1918 1929 1915 1923 1804 1864 1921 1904 1913 1934 1885 0
-6096 0
-6097 0
-6098 0
-6091 -6093 -6089 0
-6091 -6095 -6089 0
-6093 -6095 -6089 0
-6091 -6093 -6095 0
6091 6093 6089 6092 6090 6094 6096 6097 6098 0
6091 6095 6089 6092 6094 6090 6096 6097 6098 0
6095 6091 6093 6090 6094 6092 6096 6097 6098 0
-6099 0
-6100 0
-1051 6101 0
-1053 6101 0
-1057 6101 0
-1059 6101 0
-1063 6101 0
-1065 6101 0
-1075 6101 0
-1077 6101 0
-1081 6101 0
-1083 6101 0
-1087 6101 0
-1089 6101 0
-1102 6101 0
-1104 6101 0
-1108 6101 0
-1110 6101 0
-1116 6101 0
-1119 6101 0
-1121 6101 0
-1124 6101 0
-1126 6101 0
-1138 6101 0
-1140 6101 0
-1144 6101 0
-1146 6101 0
-1152 6101 0
-1154 6101 0
-1157 6101 0
-1159 6101 0
-1164 6101 0
-6101 1138 1116 1110 1083 1119 1126 1159 1065 1164 1059 1121 1053 1063 1051 1108 1075 1081 1102 1144 1057 1087 1124 1089 1104 1077 1146 1152 1154 1157 1140 0
-6102 0
-1597 6103 0
-1599 6103 0
-1605 6103 0
-1609 6103 0
-1611 6103 0
-1621 6103 0
-1623 6103 0
-1629 6103 0
-1633 6103 0
-1648 6103 0
-1650 6103 0
-1654 6103 0
-1656 6103 0
-1662 6103 0
-1665 6103 0
-1670 6103 0
-1672 6103 0
-1684 6103 0
-1686 6103 0
-1690 6103 0
-1692 6103 0
-1698 6103 0
-1700 6103 0
-1703 6103 0
-1705 6103 0
-1710 6103 0
-6103 1705 1597 1633 1667 1703 1654 1672 1650 1686 1690 1700 1648 1670 1656 1621 1692 1698 1684 1710 1627 1623 1629 1603 1665 1611 1605 1662 1635 1599 1609 0
-6104 0
-1795 6105 0
-1797 6105 0
-1801 6105 0
-1803 6105 0
-1807 6105 0
-1809 6105 0
-1819 6105 0
-1821 6105 0
-1825 6105 0
-1827 6105 0
-1831 6105 0
-1833 6105 0
-1846 6105 0
-1848 6105 0
-1852 6105 0
-1854 6105 0
-1860 6105 0
-1863 6105 0
-1865 6105 0
-1870 6105 0
-1882 6105 0
-1884 6105 0
-1888 6105 0
-1890 6105 0
-1896 6105 0
-1898 6105 0
-1903 6105 0
-6105 1831 1797 1888 1801 1890 1795 1903 1803 1896 1819 1846 1908 1863 1884 1870 1821 1898 1901 1865 1852 1860 1882 1848 1854 1833 1827 1809 1868 1807 1825 0
-6106 0
-6107 0
-6108 0
-6101 -6103 0
-6105 -6101 0
-6105 -6103 0
6101 6103 6105 6102 6100 6104 6099 6106 6107 6108 0
6109 -151 0
6109 -152 0
6109 -153 0
-154 6109 0
-155 6109 0
-156 6109 0
6109 -157 0
6109 -158 0
6109 -159 0
6109 -160 0
6109 -161 0
6109 -162 0
-163 6109 0
-164 6109 0
-165 6109 0
-166 6109 0
-167 6109 0
-168 6109 0
-169 6109 0
-170 6109 0
-171 6109 0
-172 6109 0
-173 6109 0
-174 6109 0
-175 6109 0
-176 6109 0
6109 -177 0
6109 -178 0
6109 -179 0
6109 -180 0
6109 -181 0
-182 6109 0
-183 6109 0
6109 -184 0
6109 -185 0
6109 -186 0
-187 6109 0
-188 6109 0
-189 6109 0
-190 6109 0
-191 6109 0
-192 6109 0
6109 -193 0
6109 -194 0
-195 6109 0
-196 6109 0
6109 -197 0
6109 -198 0
-172 6110 0
-173 6110 0
-180 6110 0
-181 6110 0
-182 6110 0
-183 6110 0
-193 6110 0
-194 6110 0
-195 6110 0
-196 6110 0
-197 6110 0
-198 6110 0
-6110 196 180 198 173 194 181 183 172 197 182 193 195 0
-1047 6111 0
-1049 6111 0
-1050 6111 0
-1054 6111 0
-1056 6111 0
-1064 6111 0
-1067 6111 0
-1070 6111 0
-1073 6111 0
-1078 6111 0
-1080 6111 0
-1084 6111 0
-1086 6111 0
-1088 6111 0
-1090 6111 0
-1091 6111 0
-1092 6111 0
-1094 6111 0
-1096 6111 0
-1097 6111 0
-1098 6111 0
-1101 6111 0
-1111 6111 0
-1113 6111 0
-1118 6111 0
-1122 6111 0
-1125 6111 0
-1128 6111 0
-1132 6111 0
-1134 6111 0
-1136 6111 0
-1137 6111 0
-1139 6111 0
-1142 6111 0
-1145 6111 0
-1147 6111 0
-1148 6111 0
-1149 6111 0
-1151 6111 0
-1155 6111 0
-1158 6111 0
-1161 6111 0
-1162 6111 0
-1163 6111 0
-1165 6111 0
-1167 6111 0
-1168 6111 0
-1170 6111 0
-1172 6111 0
-1175 6111 0
-1178 6111 0
-1180 6111 0
-1181 6111 0
-1182 6111 0
-1186 6111 0
-1188 6111 0
-1189 6111 0
-1191 6111 0
-1192 6111 0
-1194 6111 0
-6111 1191 1098 1047 1091 1145 1122 1050 1118 1189 1132 1168 1113 1188 1192 1137 1067 1158 1070 1149 1097 1064 1161 1142 1092 1136 1073 1163 1162 1088 1151 1148 1078 1096 1134 1128 1086 1167 1172 1147 1155 1101 1084 1111 1178 1139 1094 1080 1170 1056 1175 1194 1054 1090 1182 1049 1165 1125 1181 1186 1180 0
-6112 0
-1593 6113 0
-1595 6113 0
-1596 6113 0
-1600 6113 0
-1602 6113 0
-1610 6113 0
-1613 6113 0
-1616 6113 0
-1619 6113 0
-1624 6113 0
-1626 6113 0
-1630 6113 0
-1632 6113 0
-1634 6113 0
-1636 6113 0
-1637 6113 0
-1638 6113 0
-1640 6113 0
-1642 6113 0
-1643 6113 0
-1644 6113 0
-1647 6113 0
-1657 6113 0
-1659 6113 0
-1664 6113 0
-1668 6113 0
-1671 6113 0
-1674 6113 0
-1678 6113 0
-1680 6113 0
-1682 6113 0
-1683 6113 0
-1685 6113 0
-1688 6113 0
-1691 6113 0
-1693 6113 0
-1694 6113 0
-1695 6113 0
-1697 6113 0
-1701 6113 0
-1704 6113 0
-1707 6113 0
-1708 6113 0
-1709 6113 0
-1711 6113 0
-1713 6113 0
-1714 6113 0
-1716 6113 0
-1718 6113 0
-1721 6113 0
-1724 6113 0
-1726 6113 0
-1727 6113 0
-1728 6113 0
-1732 6113 0
-1734 6113 0
-1735 6113 0
-1737 6113 0
-1738 6113 0
-1740 6113 0
-6113 1704 1595 1680 1709 1688 1697 1668 1638 1713 1695 1619 1682 1727 1726 1735 1740 1602 1657 1643 1737 1671 1642 1718 1664 1685 1724 1678 1644 1593 1674 1630 1640 1691 1634 1693 1637 1694 1683 1600 1626 1624 1708 1707 1613 1711 1616 1716 1596 1636 1714 1632 1659 1701 1721 1728 1734 1610 1647 1732 1738 0
-6114 0
-1791 6115 0
-1793 6115 0
-1794 6115 0
-1798 6115 0
-1800 6115 0
-1811 6115 0
-1814 6115 0
-1817 6115 0
-1822 6115 0
-1824 6115 0
-1828 6115 0
-1830 6115 0
-1832 6115 0
-1834 6115 0
-1835 6115 0
-1836 6115 0
-1838 6115 0
-1840 6115 0
-1841 6115 0
-1842 6115 0
-1845 6115 0
-1855 6115 0
-1857 6115 0
-1862 6115 0
-1866 6115 0
-1869 6115 0
-1876 6115 0
-1878 6115 0
-1880 6115 0
-1881 6115 0
-1883 6115 0
-1886 6115 0
-1889 6115 0
-1891 6115 0
-1892 6115 0
-1893 6115 0
-1895 6115 0
-1899 6115 0
-1902 6115 0
-1905 6115 0
-1906 6115 0
-1907 6115 0
-1909 6115 0
-1911 6115 0
-1912 6115 0
-1914 6115 0
-1916 6115 0
-1919 6115 0
-1922 6115 0
-1924 6115 0
-1925 6115 0
-1926 6115 0
-1930 6115 0
-1932 6115 0
-1935 6115 0
-1936 6115 0
-6115 1793 1881 1914 1845 1842 1855 1892 1811 1911 1878 1909 1791 1841 1886 1876 1935 1938 1840 1838 1889 1893 1912 1880 1936 1862 1866 1869 1872 1824 1828 1830 1800 1883 1922 1834 1891 1835 1836 1895 1814 1933 1899 1902 1907 1794 1808 1817 1798 1905 1906 1832 1916 1822 1857 1919 1925 1924 1926 1930 1932 0
-6116 0
-6117 0
-6118 0
-6111 -6110 -6109 0
-6110 -6113 -6109 0
-6110 -6115 -6109 0
-6111 -6113 -6109 0
-6111 -6115 -6109 0
-6113 -6115 -6109 0
6111 6113 6110 6115 6114 6112 6116 6117 6118 0
-6119 0
-6120 0
-1057 6121 0
-1059 6121 0
-1063 6121 0
-1075 6121 0
-1077 6121 0
-1087 6121 0
-1102 6121 0
-1104 6121 0
-1108 6121 0
-1110 6121 0
-1136 6121 0
-1137 6121 0
-1138 6121 0
-1144 6121 0
-1146 6121 0
-1152 6121 0
-1165 6121 0
-1172 6121 0
-1181 6121 0
-6121 1081 1059 1163 1118 1051 1067 1119 1144 1065 1167 1078 1136 1148 1139 1138 1104 1056 1165 1089 1091 1101 1087 1088 1121 1080 1172 1152 1151 1137 1102 1097 1054 1125 1189 1073 1050 1145 1154 1047 1178 1053 1094 1064 1162 1075 1108 1140 1158 1083 1049 1191 1146 1142 1057 1110 1175 1077 1063 1070 1181 0
-6122 0
-1595 6123 0
-1596 6123 0
-1597 6123 0
-1599 6123 0
-1600 6123 0
-1602 6123 0
-1603 6123 0
-1605 6123 0
-1609 6123 0
-1610 6123 0
-1611 6123 0
-1613 6123 0
-1616 6123 0
-1619 6123 0
-1621 6123 0
-1623 6123 0
-1627 6123 0
-1629 6123 0
-1634 6123 0
-1635 6123 0
-1637 6123 0
-1640 6123 0
-1643 6123 0
-1648 6123 0
-1650 6123 0
-1654 6123 0
-1656 6123 0
-1664 6123 0
-1665 6123 0
-1667 6123 0
-1671 6123 0
-1682 6123 0
-1684 6123 0
-1686 6123 0
-1690 6123 0
-1691 6123 0
-1692 6123 0
-1697 6123 0
-1698 6123 0
-1700 6123 0
-1704 6123 0
-1708 6123 0
-1709 6123 0
-1711 6123 0
-1713 6123 0
-1735 6123 0
-1737 6123 0
-6123 1704 1648 1709 1688 1627 1737 1667 1637 1664 1656 1634 1683 1690 1692 1686 1724 1697 1650 1619 1623 1671 1665 1626 1691 1616 1654 1621 1597 1698 1711 1635 1599 1611 1633 1682 1694 1708 1629 1640 1605 1602 1610 1613 1684 1700 1727 1609 1596 1593 1624 1643 1713 1600 1685 1735 1603 1595 1721 1647 1718 0
-6124 0
-1845 6125 0
-1880 6125 0
-1881 6125 0
-6125 1880 1854 1881 1832 1886 1841 1811 1845 1824 1791 1935 1933 1808 1838 1846 1890 1889 1892 1898 1817 1852 1919 1795 1833 1835 1800 1911 1831 1807 1848 1814 1865 1862 1863 1909 1869 1809 1888 1882 1883 1884 1916 1794 1797 1819 1821 1895 1801 1896 1793 1803 1907 1822 1922 1798 1902 1825 1827 1906 1925 0
-6126 0
-2140 6127 0
-2141 6127 0
-2142 6127 0
-2143 6127 0
-2144 6127 0
-2146 6127 0
-2147 6127 0
-2151 6127 0
-2152 6127 0
-2153 6127 0
-2156 6127 0
-2157 6127 0
-2161 6127 0
-2164 6127 0
-2167 6127 0
-2168 6127 0
-2169 6127 0
-2173 6127 0
-2174 6127 0
-2177 6127 0
-2178 6127 0
-2179 6127 0
-2180 6127 0
-2181 6127 0
-2182 6127 0
-6127 2147 2142 2173 2148 2153 2158 2182 2162 2178 2138 2177 2156 2143 2166 2145 2168 2141 2172 2169 2157 2137 2144 2164 2174 2151 2163 2181 2161 2146 2152 2165 2167 2139 2140 2180 2179 0
-6128 0
-6121 -6123 -6125 0
-6121 -6123 -6127 0
-6121 -6127 -6125 0
-6127 -6123 -6125 0
6121 6123 6125 6122 6120 6124 6119 6126 6128 0
6121 6123 6127 6122 6120 6124 6126 6119 6128 0
6121 6125 6127 6122 6124 6120 6126 6119 6128 0
6123 6125 6127 6119 6124 6120 6126 6122 6128 0
-6129 0
-6130 0
-1045 6131 0
-1046 6131 0
-1048 6131 0
-1052 6131 0
-1055 6131 0
-1058 6131 0
-1061 6131 0
-1069 6131 0
-1071 6131 0
-1076 6131 0
-1079 6131 0
-1082 6131 0
-1084 6131 0
-1085 6131 0
-1086 6131 0
-1090 6131 0
-1092 6131 0
-1093 6131 0
-1095 6131 0
-1096 6131 0
-1098 6131 0
-1099 6131 0
-1100 6131 0
-1103 6131 0
-1106 6131 0
-1109 6131 0
-1111 6131 0
-1112 6131 0
-1113 6131 0
-1114 6131 0
-1115 6131 0
-1117 6131 0
-1122 6131 0
-1123 6131 0
-1128 6131 0
-1129 6131 0
-1131 6131 0
-1132 6131 0
-1134 6131 0
-1135 6131 0
-1147 6131 0
-1149 6131 0
-1150 6131 0
-1155 6131 0
-1156 6131 0
-1161 6131 0
-1168 6131 0
-1170 6131 0
-1171 6131 0
-1173 6131 0
-1177 6131 0
-1179 6131 0
-1180 6131 0
-1182 6131 0
-1183 6131 0
-1185 6131 0
-1186 6131 0
-1188 6131 0
-1192 6131 0
-1194 6131 0
-6131 1100 1045 1113 1061 1114 1156 1055 1179 1092 1071 1168 1161 1135 1099 1185 1103 1095 1090 1171 1046 1093 1122 1132 1134 1109 1085 1086 1192 1155 1079 1147 1069 1123 1129 1131 1082 1112 1096 1052 1076 1084 1128 1194 1149 1098 1182 1115 1170 1188 1106 1058 1048 1173 1183 1150 1177 1180 1186 1117 1111 0
-6132 0
-1591 6133 0
-1592 6133 0
-1594 6133 0
-1598 6133 0
-1601 6133 0
-1604 6133 0
-1607 6133 0
-1615 6133 0
-1617 6133 0
-1622 6133 0
-1625 6133 0
-1628 6133 0
-1630 6133 0
-1631 6133 0
-1632 6133 0
-1636 6133 0
-1638 6133 0
-1639 6133 0
-1641 6133 0
-1642 6133 0
-1644 6133 0
-1645 6133 0
-1646 6133 0
-1649 6133 0
-1652 6133 0
-1655 6133 0
-1657 6133 0
-1658 6133 0
-1659 6133 0
-1660 6133 0
-1661 6133 0
-1663 6133 0
-1668 6133 0
-1669 6133 0
-1674 6133 0
-1675 6133 0
-1677 6133 0
-1678 6133 0
-1680 6133 0
-1681 6133 0
-1693 6133 0
-1695 6133 0
-1696 6133 0
-1701 6133 0
-1702 6133 0
-1707 6133 0
-1714 6133 0
-1716 6133 0
-1717 6133 0
-1719 6133 0
-1723 6133 0
-1725 6133 0
-1726 6133 0
-1728 6133 0
-1729 6133 0
-1731 6133 0
-1732 6133 0
-1734 6133 0
-1738 6133 0
-1740 6133 0
-6133 1702 1628 1680 1661 1657 1669 1645 1668 1649 1652 1631 1594 1638 1696 1663 1714 1716 1726 1630 1604 1681 1678 1641 1658 1622 1591 1655 1723 1592 1639 1719 1617 1732 1636 1674 1675 1646 1625 1598 1632 1701 1659 1607 1725 1740 1707 1734 1615 1695 1660 1677 1729 1738 1728 1717 1644 1601 1731 1693 1642 0
-6134 0
-1790 6135 0
-1799 6135 0
-1813 6135 0
-1815 6135 0
-1837 6135 0
-1839 6135 0
-1840 6135 0
-1842 6135 0
-1843 6135 0
-1844 6135 0
-1850 6135 0
-1853 6135 0
-1856 6135 0
-1873 6135 0
-1875 6135 0
-1876 6135 0
-1878 6135 0
-1879 6135 0
-1893 6135 0
-1912 6135 0
-1914 6135 0
-1917 6135 0
-1926 6135 0
-1927 6135 0
-1929 6135 0
-1930 6135 0
-1932 6135 0
-6135 1837 1802 1843 1914 1879 1823 1891 1873 1878 1799 1861 1792 1842 1839 1789 1844 1815 1912 1938 1840 1834 1828 1847 1850 1853 1855 1856 1857 1858 1859 1830 1866 1867 1872 1790 1875 1876 1829 1796 1826 1926 1894 1899 1900 1813 1893 1836 1805 1917 1929 1923 1932 1915 1820 1924 1921 1927 1905 1930 1936 0
-6136 0
-2137 6137 0
-2138 6137 0
-2139 6137 0
6137 -2140 0
-2141 6137 0
6137 -2142 0
-2143 6137 0
-2144 6137 0
-2145 6137 0
-2146 6137 0
-2147 6137 0
-2148 6137 0
-2149 6137 0
-2150 6137 0
-2151 6137 0
-2152 6137 0
-2153 6137 0
-2154 6137 0
-2155 6137 0
-2156 6137 0
-2157 6137 0
6137 -2158 0
-2159 6137 0
-2160 6137 0
6137 -2161 0
-2162 6137 0
-2163 6137 0
-2164 6137 0
-2165 6137 0
-2166 6137 0
-2167 6137 0
-2168 6137 0
-2169 6137 0
-2170 6137 0
6137 -2171 0
-2172 6137 0
-2173 6137 0
-2174 6137 0
-2175 6137 0
-2176 6137 0
-2177 6137 0
-2178 6137 0
-2179 6137 0
6137 -2180 0
-2181 6137 0
6137 -2182 0
6137 -2183 0
6137 -2184 0
-2149 6138 0
-2150 6138 0
-2154 6138 0
-2155 6138 0
-2159 6138 0
-2160 6138 0
-2170 6138 0
-2171 6138 0
-2175 6138 0
-2176 6138 0
-2183 6138 0
-2184 6138 0
-6138 2184 2149 2183 2159 2171 2155 2170 2154 2176 2175 2150 2160 0
-6131 -6133 -6137 0
-6131 -6135 -6137 0
-6131 -6138 -6137 0
-6133 -6135 -6137 0
-6133 -6138 -6137 0
-6135 -6138 -6137 0
6133 6131 6135 6138 6130 6134 6129 6136 6132 0
-6139 0
-6140 0
-1060 6141 0
-1062 6141 0
-1066 6141 0
-1068 6141 0
-1072 6141 0
-1074 6141 0
-1105 6141 0
-1107 6141 0
-1116 6141 0
-1120 6141 0
-1124 6141 0
-1126 6141 0
-1127 6141 0
-1130 6141 0
-1133 6141 0
-1141 6141 0
-1143 6141 0
-1153 6141 0
-1157 6141 0
-1159 6141 0
-1160 6141 0
-1164 6141 0
-1166 6141 0
-1169 6141 0
-1174 6141 0
-1176 6141 0
-1184 6141 0
-1187 6141 0
-1190 6141 0
-1193 6141 0
-6141 1184 1068 1124 1062 1130 1193 1127 1166 1143 1169 1066 1176 1074 1190 1153 1133 1164 1060 1187 1141 1157 1107 1072 1120 1116 1105 1160 1126 1174 1159 0
-6142 0
-1606 6143 0
-1608 6143 0
-1612 6143 0
-1614 6143 0
-1618 6143 0
-1620 6143 0
-1651 6143 0
-1653 6143 0
-1662 6143 0
-1666 6143 0
-1670 6143 0
-1672 6143 0
-1673 6143 0
-1676 6143 0
-1679 6143 0
-1687 6143 0
-1689 6143 0
-1699 6143 0
-1703 6143 0
-1705 6143 0
-1706 6143 0
-1710 6143 0
-1712 6143 0
-1715 6143 0
-1720 6143 0
-1722 6143 0
-1730 6143 0
-1733 6143 0
-1736 6143 0
-1739 6143 0
-6143 1733 1606 1670 1679 1722 1736 1689 1687 1703 1705 1653 1676 1614 1620 1720 1710 1662 1739 1651 1618 1612 1672 1608 1712 1666 1699 1730 1706 1673 1715 0
-6144 0
-1804 6145 0
-1806 6145 0
-1810 6145 0
-1812 6145 0
-1816 6145 0
-1818 6145 0
-1849 6145 0
-1851 6145 0
-1860 6145 0
-1864 6145 0
-1868 6145 0
-1870 6145 0
-1871 6145 0
-1874 6145 0
-1877 6145 0
-1885 6145 0
-1887 6145 0
-1897 6145 0
-1901 6145 0
-1903 6145 0
-1904 6145 0
-1908 6145 0
-1910 6145 0
-1913 6145 0
-1918 6145 0
-1920 6145 0
-1928 6145 0
-1931 6145 0
-1934 6145 0
-1937 6145 0
-6145 1908 1804 1868 1871 1937 1918 1860 1934 1849 1874 1818 1931 1810 1851 1864 1877 1928 1920 1913 1897 1806 1870 1816 1885 1887 1903 1812 1910 1904 1901 0
-6146 0
-6147 0
-6148 0
-6141 -6143 0
-6145 -6141 0
-6145 -6143 0
6141 6143 6145 6142 6140 6144 6139 6146 6147 6148 0
-45 6149 0
-47 6149 0
-71 6149 0
-87 6149 0
-100 6149 0
-105 6149 0
-118 6149 0
-120 6149 0
-139 6149 0
-144 6149 0
-6149 119 144 45 70 87 142 143 141 118 89 47 85 88 90 43 46 101 100 102 104 105 103 72 71 44 48 140 120 139 86 0
-6150 0
-829 6151 0
-831 6151 0
-833 6151 0
-834 6151 0
-844 6151 0
-845 6151 0
-846 6151 0
-847 6151 0
-848 6151 0
-849 6151 0
-6151 814 791 792 787 829 789 845 862 884 830 788 831 815 833 834 844 790 846 847 848 816 832 863 864 849 883 885 886 887 888 0
-6152 0
-937 6153 0
-939 6153 0
-964 6153 0
-965 6153 0
-966 6153 0
-979 6153 0
-980 6153 0
-981 6153 0
-982 6153 0
-984 6153 0
-994 6153 0
-995 6153 0
-996 6153 0
-998 6153 0
-999 6153 0
-1012 6153 0
-1013 6153 0
-1014 6153 0
-1033 6153 0
-1035 6153 0
-1036 6153 0
-1038 6153 0
-6153 964 939 966 984 1014 937 1034 940 994 942 941 980 995 983 965 999 982 996 938 979 981 1038 1013 997 1033 998 1035 1012 1037 1036 0
-6154 0
-1088 6155 0
-1089 6155 0
-1090 6155 0
-1114 6155 0
-1116 6155 0
-1129 6155 0
-1130 6155 0
-1131 6155 0
-1132 6155 0
-1144 6155 0
-1145 6155 0
-1146 6155 0
-1162 6155 0
-1163 6155 0
-1164 6155 0
-1187 6155 0
-1188 6155 0
-6156 0
-2151 6157 0
-2154 6157 0
-2156 6157 0
-2159 6157 0
-2167 6157 0
-2170 6157 0
-2172 6157 0
-2175 6157 0
-2177 6157 0
-2180 6157 0
-6157 2175 2156 2177 2170 2159 2180 2151 2172 2154 2167 0
-6158 0
-6149 -6155 0
-6149 -6157 0
-6151 -6155 0
-6153 -6155 0
-6153 -6157 0
-6155 -6157 0
6149 6151 6153 6155 6157 6154 6152 6156 6150 6158 0
6159 -1 0
-8 6159 0
-794 6161 0
-796 6161 0
-802 6161 0
-803 6161 0
-804 6161 0
-805 6161 0
-806 6161 0
-807 6161 0
-817 6161 0
-818 6161 0
-819 6161 0
-820 6161 0
-821 6161 0
-822 6161 0
-823 6161 0
-824 6161 0
-825 6161 0
-826 6161 0
-827 6161 0
-828 6161 0
-871 6161 0
-872 6161 0
-873 6161 0
-874 6161 0
-891 6161 0
-892 6161 0
-893 6161 0
-894 6161 0
-896 6163 0
-903 6163 0
-905 6163 0
-948 6163 0
-952 6163 0
-953 6163 0
-956 6163 0
-957 6163 0
-968 6163 0
-971 6163 0
-974 6163 0
-976 6163 0
-977 6163 0
-985 6163 0
-986 6163 0
6163 -987 0
-1016 6163 0
-1017 6163 0
-1018 6163 0
-1024 6163 0
-6163 895 956 905 901 948 1016 911 1018 906 907 1044 903 1024 968 912 943 897 945 944 954 947 910 902 987 946 1042 896 904 953 969 955 971 908 957 909 975 976 977 978 974 1015 986 970 952 967 985 1019 1017 972 1020 1023 973 1022 1026 1025 1039 1041 1021 1043 1040 0
6165 -1046 0
6165 -1047 0
6165 -1055 0
6165 -1059 0
-1060 6165 0
-1093 6165 0
-1094 6165 0
-1102 6165 0
-1103 6165 0
-1107 6165 0
6165 -1117 0
6165 -1118 0
6165 -1124 0
6165 -1135 0
-1136 6165 0
6165 -1137 0
6165 -1166 0
-1167 6165 0
-1171 6165 0
6165 -1172 0
-1191 6165 0
6165 -1193 0
-1194 6165 0
-2137 6167 0
-2138 6167 0
-2139 6167 0
-2152 6167 0
6167 -2153 0
-2155 6167 0
-2157 6167 0
6167 -2158 0
-2160 6167 0
6167 -2161 0
-2162 6167 0
-2164 6167 0
-2165 6167 0
6167 -2178 0
-2179 6167 0
-2181 6167 0
6167 -2182 0
6167 -2183 0
6167 -2184 0
-6167 2153 2138 2184 2155 2158 2139 2165 2137 2162 2182 2179 2181 2157 2178 2164 2160 2183 2152 2161 0
-6161 -6159 -6167 0
-6159 -6165 -6163 0
-6159 -6163 -6167 0
-6159 -6165 -6167 0
-6161 -6163 -6167 0
-6165 -6163 -6167 0
-133 6169 0
-134 6169 0
-135 6169 0
-136 6169 0
94 96 6 25 28 57 133 135 30 19 4 136 27 42 24 21 138 32 33 34 35 23 38 55 22 40 137 41 37 29 113 56 65 64 20 66 31 69 68 39 97 95 99 5 98 108 109 110 106 107 67 26 115 116 36 117 114 112 111 -6169 134 0
-6170 0
-775 6171 0
-809 6171 0
-811 6171 0
-6171 767 851 769 850 768 750 766 799 763 749 770 771 772 773 774 765 779 777 778 764 877 776 782 783 784 785 786 781 748 840 808 809 810 775 812 813 838 839 811 841 842 843 800 801 852 853 854 855 856 857 858 859 860 861 780 878 879 880 881 882 0
-6172 0
-898 6173 0
-913 6173 0
-951 6173 0
-1008 6173 0
-6174 0
-1049 6175 0
-1050 6175 0
-1072 6175 0
-1074 6175 0
-1075 6175 0
-1076 6175 0
-1077 6175 0
-1079 6175 0
-1099 6175 0
-1100 6175 0
-1101 6175 0
-1153 6175 0
-1157 6175 0
-1159 6175 0
-1178 6175 0
-1180 6175 0
-1182 6175 0
-6175 1150 1049 1067 1100 1112 1065 1140 1113 1069 1139 1181 1064 1076 1099 1085 1108 1050 1048 1078 1063 1072 1081 1110 1109 1074 1086 1077 1182 1143 1142 1138 1101 1111 1141 1068 1157 1073 1084 1159 1070 1075 1071 1066 1158 1152 1154 1155 1156 1079 1083 1151 1160 1153 1178 1080 1179 1161 1180 1177 1082 0
-6176 0
-2144 6177 0
-2145 6177 0
-2147 6177 0
-2173 6177 0
-6177 2147 2141 2174 2169 2146 2166 2149 2140 2145 2171 2148 2176 2143 2168 2150 2144 2163 2142 2173 0
-6178 0
-6171 -6173 -6169 0
-6171 -6173 -6175 0
-6173 -6175 -6177 0
6169 6171 6175 6177 6174 6170 6176 6172 6178 0
-6179 6 147 133 135 18 150 148 13 25 16 28 4 149 29 30 15 32 113 110 17 31 33 5 55 58 35 114 14 62 138 63 27 56 109 59 111 117 36 106 115 57 107 60 26 123 121 124 122 116 108 125 126 34 112 134 136 137 61 146 145 0
-6180 0
-805 6181 0
-6181 773 760 774 850 851 750 878 761 762 758 757 771 769 749 799 759 889 777 778 779 770 800 748 772 802 803 804 776 805 806 807 870 775 801 852 854 855 856 857 858 859 860 853 861 866 867 868 865 877 780 879 880 881 882 869 890 891 892 893 894 0
-6182 0
-898 6183 0
-6183 912 907 900 1009 920 922 925 1000 950 921 949 908 909 923 919 898 926 927 928 929 1005 951 957 911 1008 1018 954 930 1017 924 1001 910 1002 955 1004 1044 1006 1007 1016 1003 1010 952 1011 953 899 956 1019 1015 1027 1020 1029 1028 1031 1032 1030 1039 1041 1042 1043 1040 0
-6184 0
-1049 6185 0
-1050 6185 0
-1072 6185 0
-1074 6185 0
-1075 6185 0
-1077 6185 0
-1099 6185 0
-1100 6185 0
-1157 6185 0
-1159 6185 0
-1180 6185 0
-1182 6185 0
-6185 1178 1072 1061 1103 1049 1104 1159 1182 1177 1058 1057 1168 1192 1160 1099 1048 1156 1107 1106 1155 1069 1060 1062 1167 1152 1190 1166 1194 1105 1102 1071 1077 1193 1153 1191 1080 1158 1070 1154 1074 1161 1165 1059 1073 1157 1100 1079 1150 1169 1179 1170 1078 1075 1180 1076 1151 1181 1101 1189 1050 0
-6186 0
-2147 6187 0
-6187 2146 2140 2168 2173 2169 2176 2178 2184 2179 2182 2148 2181 2174 2144 2171 2143 2141 2183 2147 0
-6188 0
-6181 -6183 -6185 0
6183 6179 6185 6187 6184 6182 6186 6180 6188 0
6181 6183 6185 6187 6184 6182 6186 6180 6188 0
-781 6191 0
-782 6191 0
-786 6191 0
-808 6191 0
-809 6191 0
-810 6191 0
-811 6191 0
-812 6191 0
-813 6191 0
-814 6191 0
-815 6191 0
-816 6191 0
-838 6191 0
-839 6191 0
-840 6191 0
-841 6191 0
-842 6191 0
-843 6191 0
-862 6191 0
-863 6191 0
-864 6191 0
-913 6193 0
-914 6193 0
-915 6193 0
-917 6193 0
-959 6193 0
-961 6193 0
-962 6193 0
-963 6193 0
-964 6193 0
-988 6193 0
-989 6193 0
-990 6193 0
-992 6193 0
-993 6193 0
-1013 6193 0
-1014 6193 0
-1065 6195 0
-1066 6195 0
-1068 6195 0
-1081 6195 0
-1082 6195 0
-1083 6195 0
-1084 6195 0
-1085 6195 0
-1108 6195 0
-1109 6195 0
-1110 6195 0
-1112 6195 0
-1114 6195 0
-1115 6195 0
-1116 6195 0
-1138 6195 0
-1139 6195 0
-1141 6195 0
-1142 6195 0
-1143 6195 0
-1162 6195 0
-1163 6195 0
-1164 6195 0
-6195 1081 1067 1112 1110 1113 1141 1116 1064 1108 1111 1142 1084 1138 1164 1065 1082 1114 1086 1140 1143 1139 1085 1163 1162 1068 1115 1063 1066 1083 1109 0
-2142 6197 0
6197 -2145 0
-2149 6197 0
-2150 6197 0
-2163 6197 0
6197 -2166 0
-2177 6197 0
-2180 6197 0
-6197 2177 2142 2180 2149 2163 2166 2150 2145 0
-6191 -6193 0
-6191 -6195 0
-6191 -6197 0
-6193 -6195 0
-6193 -6197 0
-6195 -6197 0
6199 -1 0
6199 -3 0
6199 -91 0
-751 6201 0
-756 6201 0
-817 6201 0
-818 6201 0
-819 6201 0
-820 6201 0
-821 6201 0
-822 6201 0
-823 6201 0
-824 6201 0
-825 6201 0
-826 6201 0
-827 6201 0
-828 6201 0
-829 6201 0
-830 6201 0
-831 6201 0
-832 6201 0
-833 6201 0
-834 6201 0
-835 6201 0
-836 6201 0
-837 6201 0
-844 6201 0
-845 6201 0
-846 6201 0
-847 6201 0
-848 6201 0
-849 6201 0
-885 6201 0
-886 6201 0
-887 6201 0
-896 6203 0
-901 6203 0
-902 6203 0
-903 6203 0
-904 6203 0
-905 6203 0
-906 6203 0
-937 6203 0
-939 6203 0
-967 6203 0
-968 6203 0
-969 6203 0
-970 6203 0
-971 6203 0
-972 6203 0
-973 6203 0
-974 6203 0
-975 6203 0
-976 6203 0
-977 6203 0
-978 6203 0
-979 6203 0
-980 6203 0
-981 6203 0
-982 6203 0
-985 6203 0
-986 6203 0
6203 -987 0
-994 6203 0
-995 6203 0
-998 6203 0
-999 6203 0
-1036 6203 0
-6203 895 905 979 946 1024 904 937 1038 906 939 1021 948 940 903 942 943 980 945 901 902 947 944 981 969 970 971 968 995 941 975 976 977 978 986 974 973 982 983 984 999 967 985 987 896 996 997 998 994 972 897 1023 1022 1025 938 1033 1026 1035 1034 1037 1036 0
6205 -1046 0
6205 -1047 0
6205 -1055 0
6205 -1056 0
-1088 6205 0
-1090 6205 0
-1093 6205 0
-1094 6205 0
6205 -1117 0
6205 -1118 0
6205 -1124 0
6205 -1129 0
6205 -1130 0
6205 -1131 0
-1132 6205 0
6205 -1135 0
-1136 6205 0
6205 -1137 0
6205 -1144 0
-1145 6205 0
-1148 6205 0
6205 -1149 0
6205 -1171 0
6205 -1172 0
-1186 6205 0
6205 -1187 0
6205 -1188 0
-6205 1119 1046 1091 1045 1183 1117 1135 1171 1055 1149 1132 1136 1134 1188 1124 1052 1187 1118 1096 1090 1098 1146 1097 1137 1093 1120 1122 1092 1123 1095 1145 1125 1126 1128 1054 1051 1127 1130 1133 1121 1053 1172 1129 1144 1094 1147 1131 1087 1056 1176 1173 1174 1175 1089 1047 1184 1185 1186 1148 1088 0
-2137 6207 0
-2138 6207 0
-2139 6207 0
-2151 6207 0
-2152 6207 0
6207 -2153 0
-2154 6207 0
-2155 6207 0
6207 -2156 0
-2157 6207 0
6207 -2158 0
-2159 6207 0
-2160 6207 0
6207 -2161 0
-2162 6207 0
-2164 6207 0
-2165 6207 0
6207 -2167 0
-2170 6207 0
6207 -2172 0
-2175 6207 0
-6207 2158 2137 2162 2160 2153 2139 2165 2156 2157 2159 2172 2175 2167 2161 2155 2170 2151 2164 2152 2154 2138 0
-6201 -6199 -6203 0
-6201 -6199 -6205 0
-6201 -6199 -6207 0
-6199 -6205 -6203 0
-6199 -6203 -6207 0
-6199 -6205 -6207 0
-6205 -6203 -6207 0
6209 -1 0
-6210 0
-810 6211 0
-812 6211 0
-813 6211 0
-6211 767 752 768 809 756 746 753 763 841 747 764 755 766 783 817 840 765 751 784 785 782 793 754 795 876 797 798 808 796 745 875 812 813 810 818 819 794 821 822 823 824 825 826 827 828 835 836 837 838 839 811 781 842 843 871 872 873 874 820 786 0
-6212 0
-896 6213 0
-901 6213 0
-905 6213 0
-958 6213 0
-959 6213 0
-963 6213 0
-967 6213 0
-968 6213 0
-973 6213 0
-974 6213 0
-985 6213 0
-986 6213 0
-987 6213 0
-988 6213 0
-989 6213 0
-992 6213 0
-993 6213 0
-6213 914 905 895 902 931 948 959 992 986 961 946 903 904 958 969 915 932 933 934 935 1021 943 944 945 901 947 896 906 918 960 916 913 985 963 968 962 970 971 972 973 1026 975 976 977 978 993 974 967 917 987 990 991 988 989 936 897 1023 1022 1025 1024 0
-6214 0
-1046 6215 0
-1047 6215 0
-1055 6215 0
-1065 6215 0
-1093 6215 0
-1094 6215 0
-1109 6215 0
-1112 6215 0
-1117 6215 0
-1118 6215 0
-1119 6215 0
-1121 6215 0
-1124 6215 0
-1139 6215 0
-1142 6215 0
-1143 6215 0
-1171 6215 0
-1172 6215 0
-1175 6215 0
-6215 1110 1067 1123 1136 1119 1108 1065 1109 1063 1045 1128 1066 1053 1127 1068 1081 1140 1143 1113 1086 1138 1111 1112 1095 1096 1097 1098 1056 1051 1055 1094 1047 1093 1137 1085 1120 1121 1122 1118 1054 1117 1125 1082 1124 1172 1064 1046 1083 1135 1084 1141 1126 1139 1142 1171 1173 1174 1175 1176 1052 0
-6216 0
-2137 6217 0
-2138 6217 0
-2139 6217 0
-2142 6217 0
-2145 6217 0
-2149 6217 0
-2150 6217 0
-2152 6217 0
-2153 6217 0
-2155 6217 0
-2157 6217 0
-2158 6217 0
-2160 6217 0
-2161 6217 0
-2163 6217 0
-2165 6217 0
-2166 6217 0
-6217 2153 2138 2162 2158 2155 2165 2166 2163 2137 2145 2157 2150 2160 2149 2142 2139 2161 2152 2164 0
-6218 0
-6211 -6209 -6213 0
-6211 -6209 -6217 0
-6209 -6215 -6213 0
-6209 -6213 -6217 0
-6209 -6215 -6217 0
-6215 -6213 -6217 0
6213 6211 6215 6217 6214 6212 6216 6210 6218 0
-6219 6 142 25 29 110 35 27 133 113 135 138 32 85 48 43 30 141 28 46 55 31 144 4 5 106 26 57 143 34 90 56 87 44 89 104 105 107 33 88 109 100 111 112 36 140 115 116 47 117 108 102 86 136 137 45 134 114 101 103 139 0
-6220 0
-6221 773 829 774 750 770 772 779 851 749 799 771 777 861 769 878 787 877 789 790 791 792 800 748 778 830 788 849 832 831 833 834 776 844 846 847 848 845 801 850 853 852 855 854 857 856 858 859 860 775 780 879 880 881 882 883 884 885 886 887 888 0
-6222 0
900 -6223 898 949 920 922 1009 950 979 919 923 926 1000 921 929 1038 927 924 937 980 1034 941 925 938 939 1008 899 981 994 942 984 951 928 996 997 983 999 1001 998 1002 930 1004 1005 1006 1007 982 1003 1010 995 1027 1011 1029 1028 1031 1032 1033 1030 1035 940 1037 1036 0
-6224 0
-6225 1188 1048 1146 1072 1049 1178 1091 1079 1177 1149 1185 1069 1074 1159 1148 1089 1099 1071 1080 1147 1073 1088 1145 1100 1186 1130 1129 1076 1160 1131 1070 1156 1050 1087 1144 1158 1150 1101 1151 1075 1154 1155 1132 1090 1133 1092 1157 1161 1187 1184 1179 1153 1134 1152 1182 1181 1078 1077 1183 1180 0
-6226 0
-2147 6227 0
-6227 2159 2140 2167 2141 2172 2169 2171 2156 2154 2173 2147 2176 2170 2151 2174 2148 2168 2175 2143 2144 2146 0
-6228 0
6219 6221 6223 6225 6220 6224 6222 6226 6228 0
6219 6227 6223 6221 6220 6224 6226 6222 6228 0
6227 6225 6219 6221 6224 6220 6226 6222 6228 0
6223 6227 6219 6225 6224 6222 6226 6220 6228 0
-13 6229 0
-14 6229 0
-61 6229 0
-62 6229 0
-63 6229 0
-71 6229 0
-72 6229 0
-118 6229 0
-120 6229 0
-123 6229 0
-124 6229 0
-146 6229 0
-148 6229 0
-149 6229 0
-150 6229 0
-760 6231 0
-805 6231 0
-814 6231 0
-864 6231 0
-890 6231 0
-909 6233 0
-911 6233 0
-952 6233 0
-953 6233 0
-956 6233 0
-957 6233 0
-964 6233 0
-965 6233 0
-966 6233 0
-1012 6233 0
-1013 6233 0
-1014 6233 0
-1015 6233 0
-1016 6233 0
-1017 6233 0
-1018 6233 0
-1043 6233 0
-1057 6235 0
-1059 6235 0
-1060 6235 0
-1102 6235 0
-1103 6235 0
-1104 6235 0
-1105 6235 0
-1106 6235 0
-1107 6235 0
6235 -1114 0
-1115 6235 0
6235 -1116 0
-1162 6235 0
-1163 6235 0
6235 -1164 0
-1166 6235 0
-1169 6235 0
-1193 6235 0
-2177 6237 0
-2178 6237 0
-2179 6237 0
-2180 6237 0
-2181 6237 0
-2182 6237 0
6237 -2183 0
6237 -2184 0
-6237 2184 2182 2177 2179 2180 2178 2181 2183 0
-6229 -6235 0
-6229 -6237 0
-6231 -6233 0
-6231 -6235 0
-6231 -6237 0
-6233 -6235 0
-6233 -6237 0
-6235 -6237 0
-364 6239 0
-367 6239 0
-376 6239 0
-379 6239 0
-388 6239 0
-391 6239 0
-394 6239 0
-6239 388 367 370 379 376 364 394 373 391 0
-6240 0
-637 6241 0
-638 6241 0
-639 6241 0
-640 6241 0
-641 6241 0
-642 6241 0
-664 6241 0
-666 6241 0
-679 6241 0
-680 6241 0
-681 6241 0
-682 6241 0
-684 6241 0
-694 6241 0
-696 6241 0
-698 6241 0
-699 6241 0
-712 6241 0
-733 6241 0
-735 6241 0
-737 6241 0
-738 6241 0
-6241 712 639 679 699 736 664 695 738 666 734 680 641 684 637 665 733 713 640 638 696 694 714 683 697 698 642 682 681 737 735 0
-6242 0
-1360 6243 0
-1363 6243 0
-1366 6243 0
-1375 6243 0
-1378 6243 0
-1381 6243 0
-1384 6243 0
-1387 6243 0
-1390 6243 0
-6243 1390 1363 1375 1381 1384 1378 1360 1366 1387 0
-6244 0
-1558 6245 0
-1561 6245 0
-1564 6245 0
-1570 6245 0
-1573 6245 0
-1582 6245 0
-1585 6245 0
-1588 6245 0
-6245 1588 1570 1585 1561 1567 1564 1582 1573 1558 0
-6246 0
-2105 6247 0
-2109 6247 0
-2110 6247 0
-2114 6247 0
-2117 6247 0
-2121 6247 0
-2131 6247 0
-2134 6247 0
-6247 2131 2109 2110 2121 2105 2117 2114 2126 2134 0
-6248 0
-6241 -6239 0
-6243 -6239 0
-6239 -6245 0
-6247 -6239 0
-6241 -6243 0
-6241 -6245 0
-6247 -6241 0
-6243 -6245 0
-6247 -6245 0
6241 6243 6239 6245 6247 6244 6242 6246 6240 6248 0
-6249 0
-6250 0
-739 6251 0
-740 6251 0
-741 6251 0
-742 6251 0
-743 6251 0
-744 6251 0
-6251 612 668 726 667 743 670 676 673 669 686 671 656 721 672 685 724 610 720 653 602 687 609 608 723 647 607 741 603 601 643 717 652 646 654 674 597 648 657 606 678 716 739 645 715 718 644 675 595 655 719 744 605 725 604 677 740 611 742 722 596 0
-6252 0
-6254 0
-6255 0
-6256 0
-2102 6257 0
-2103 6257 0
-2104 6257 0
-2111 6257 0
-2112 6257 0
-2113 6257 0
-2116 6257 0
-2118 6257 0
-2120 6257 0
-6257 2091 2097 2132 2103 2099 2107 2104 2096 2111 2115 2120 2102 2093 2106 2122 2092 2095 2119 2108 2113 2127 2125 2098 2100 2116 2112 2101 2128 2123 2124 2090 2118 2129 2130 2094 2133 2135 2136 2089 0
-6258 0
6251 6253 6249 6252 6250 6254 6255 6256 6258 0
6257 6251 6249 6252 6254 6255 6256 6250 6258 0
-352 6259 0
-355 6259 0
-365 6259 0
-369 6259 0
-381 6259 0
-390 6259 0
-393 6259 0
-6259 389 359 357 372 349 355 354 356 353 352 351 358 360 361 363 365 366 368 369 350 362 374 375 377 378 380 381 382 383 384 385 386 387 393 390 392 395 396 371 0
-6260 0
-598 6261 0
-599 6261 0
-600 6261 0
-613 6261 0
-615 6261 0
-616 6261 0
-618 6261 0
-619 6261 0
-620 6261 0
-621 6261 0
-623 6261 0
-626 6261 0
-627 6261 0
-628 6261 0
-629 6261 0
-630 6261 0
-633 6261 0
-634 6261 0
-636 6261 0
-649 6261 0
-650 6261 0
-651 6261 0
-658 6261 0
-659 6261 0
-660 6261 0
-661 6261 0
-662 6261 0
-663 6261 0
-688 6261 0
-689 6261 0
-691 6261 0
-692 6261 0
-693 6261 0
-700 6261 0
-701 6261 0
-704 6261 0
-705 6261 0
-706 6261 0
-707 6261 0
-708 6261 0
-709 6261 0
-727 6261 0
-728 6261 0
-729 6261 0
-730 6261 0
-731 6261 0
-6261 620 635 626 709 729 730 599 631 732 636 621 688 704 689 624 706 708 692 632 658 617 623 710 615 731 659 625 614 691 705 628 650 707 622 662 663 711 627 690 633 616 693 649 618 634 660 703 661 619 701 629 613 598 630 727 651 600 728 700 702 0
-6262 0
-6263 0
-6264 0
-1543 6265 0
-1544 6265 0
-1545 6265 0
-1546 6265 0
-1547 6265 0
-1548 6265 0
-1551 6265 0
-1559 6265 0
-1560 6265 0
-1562 6265 0
-1563 6265 0
-1565 6265 0
-1566 6265 0
-1568 6265 0
-1569 6265 0
-1571 6265 0
-1574 6265 0
-1575 6265 0
-1584 6265 0
-1587 6265 0
-6265 1565 1550 1568 1557 1547 1548 1562 1546 1551 1543 1554 1553 1555 1552 1549 1560 1559 1563 1544 1566 1556 1569 1571 1572 1574 1575 1545 1581 1576 1577 1578 1579 1583 1584 1586 1587 1589 1590 1580 0
-6266 0
-6267 0
-6268 0
-6261 -6259 -6265 0
6259 6261 6260 6262 6263 6264 6266 6267 6268 0
6265 6259 6262 6263 6264 6260 6266 6267 6268 0
6265 6261 6262 6263 6264 6260 6266 6267 6268 0
6269 -352 0
6273 -1376 0
6273 -1383 0
6273 -1388 0
-6273 1386 1351 1388 1357 1359 1383 1352 1389 1345 1385 1377 1376 1348 1358 1346 1391 1380 1379 1354 1355 1392 1382 1349 1356 0
6275 -1546 0
-6275 1586 1546 1554 1557 1543 1549 1552 1553 1583 1584 1589 1587 1555 1590 1556 0
-2089 6277 0
-2094 6277 0
-2097 6277 0
-2100 6277 0
-2101 6277 0
-2123 6277 0
-2124 6277 0
-2129 6277 0
-2130 6277 0
-2135 6277 0
-6277 -6273 -6269 0
-6279 0
-6280 0
-613 6281 0
-615 6281 0
-617 6281 0
-618 6281 0
-632 6281 0
-633 6281 0
-634 6281 0
-658 6281 0
-660 6281 0
-662 6281 0
-663 6281 0
-665 6281 0
-688 6281 0
-689 6281 0
-690 6281 0
-691 6281 0
-692 6281 0
-693 6281 0
-714 6281 0
-6281 713 662 661 693 635 689 665 688 615 666 663 616 631 634 691 660 618 712 633 632 617 659 692 690 664 636 613 714 614 658 0
-6282 0
-1347 6283 0
-1350 6283 0
-1353 6283 0
-1360 6283 0
-1363 6283 0
-1366 6283 0
-1375 6283 0
-1378 6283 0
-1381 6283 0
-1384 6283 0
-1387 6283 0
-1390 6283 0
-6283 1369 1361 1368 1390 1364 1347 1367 1366 1350 1365 1384 1378 1363 1362 1381 1387 1360 1375 1353 1372 1370 1374 1371 1373 0
-6284 0
-6285 0
-6286 0
-2090 6287 0
-2091 6287 0
-2095 6287 0
-2096 6287 0
-2105 6287 0
-2106 6287 0
-2107 6287 0
-2108 6287 0
-2109 6287 0
-2110 6287 0
-2111 6287 0
-2112 6287 0
-2113 6287 0
-2114 6287 0
-2115 6287 0
-2116 6287 0
-2117 6287 0
-2118 6287 0
-2119 6287 0
-2121 6287 0
-2126 6287 0
-2131 6287 0
-2134 6287 0
-6287 2095 2096 2131 2118 2116 2134 2126 2107 2090 2091 2120 2113 2111 2121 2105 2109 2108 2114 2106 2112 2115 2117 2110 2119 0
-6288 0
-6281 -6283 0
-6281 -6287 0
-6287 -6283 0
6283 6281 6287 6282 6280 6284 6285 6286 6279 6288 0
-353 6289 0
-365 6289 0
-369 6289 0
-371 6289 0
-372 6289 0
-375 6289 0
-394 6289 0
383 382 370 376 371 379 374 351 350 388 354 372 366 394 368 353 364 380 367 381 369 385 365 391 377 -6289 378 384 387 357 375 386 373 356 0
-6290 0
-595 6291 0
-596 6291 0
-597 6291 0
-601 6291 0
-602 6291 0
-603 6291 0
-604 6291 0
-605 6291 0
-606 6291 0
-643 6291 0
-644 6291 0
-645 6291 0
-647 6291 0
-648 6291 0
-667 6291 0
-668 6291 0
-669 6291 0
-670 6291 0
-671 6291 0
-673 6291 0
-675 6291 0
-676 6291 0
-677 6291 0
-678 6291 0
-681 6291 0
-683 6291 0
-685 6291 0
-686 6291 0
-687 6291 0
-695 6291 0
-697 6291 0
-698 6291 0
-721 6291 0
-722 6291 0
-723 6291 0
-724 6291 0
-725 6291 0
-726 6291 0
-734 6291 0
-736 6291 0
-6291 695 725 721 671 675 673 726 667 685 646 641 605 738 639 669 603 595 645 723 647 596 638 672 674 676 648 681 684 642 601 604 606 686 736 643 679 683 682 680 698 640 694 668 737 697 602 687 644 722 678 724 637 670 733 696 735 597 699 734 677 0
-6292 0
-6293 0
-6294 0
-1545 6295 0
-1548 6295 0
-1551 6295 0
-1558 6295 0
-1561 6295 0
-1563 6295 0
-1567 6295 0
-1572 6295 0
-1573 6295 0
-1588 6295 0
-6295 1565 1545 1578 1568 1585 1574 1569 1566 1560 1575 1582 1561 1588 1559 1563 1567 1571 1572 1544 1576 1547 1558 1562 1550 1573 1548 1570 1551 1579 1581 1564 1577 1580 0
-6296 0
-6297 0
-6298 0
-6291 -6295 -6289 0
6289 6291 6290 6292 6293 6294 6296 6297 6298 0
6289 6295 6292 6293 6294 6290 6296 6297 6298 0
6291 6295 6292 6293 6294 6290 6296 6297 6298 0
-372 6299 0
-378 6299 0
-597 6301 0
-602 6301 0
-644 6301 0
-667 6301 0
-670 6301 0
-673 6301 0
-685 6301 0
-687 6301 0
-721 6301 0
-725 6301 0
-726 6301 0
6303 -1347 0
6303 -1350 0
6303 -1368 0
6305 -1560 0
6305 -1562 0
6305 -1563 0
6305 -1565 0
6305 -1568 0
-1569 6305 0
6305 -1571 0
6305 -1574 0
6305 -1575 0
-2120 6307 0
-6307 2095 2120 2108 2111 2091 2115 2096 2090 2112 2107 2118 2106 2116 2119 2113 0
-6299 -6301 -6303 0
-6307 -6299 -6303 0
-6301 -6305 -6303 0
-6307 -6305 -6303 0
-6309 0
-6310 0
-6311 736 639 700 706 729 679 699 701 696 620 599 732 704 625 707 731 626 640 694 728 621 738 680 641 733 710 598 619 709 629 600 650 637 702 627 695 697 638 682 642 735 651 623 708 703 628 684 630 711 705 730 698 727 649 683 734 624 737 681 622 0
-6312 0
-6313 1357 1345 1389 1392 1384 1376 1363 1386 1378 1385 1358 1355 1387 1388 1379 1383 1390 1381 1377 1380 1360 1352 1346 1391 1366 1382 1375 1348 1351 1359 1349 1354 1356 0
-6314 0
-6315 0
-6316 0
-6317 2098 2093 2132 2099 2089 2100 2121 2094 2103 2102 2124 2104 2123 2101 2110 2105 2114 2122 2127 2125 2134 2126 2117 2097 2129 2130 2131 2128 2133 2109 2135 2136 2092 0
-6318 0
6311 6313 6309 6312 6310 6314 6315 6316 6318 0
6317 6311 6309 6312 6314 6315 6316 6310 6318 0
6317 6313 6312 6309 6314 6315 6316 6310 6318 0
-349 6319 0
-352 6319 0
-355 6319 0
-364 6319 0
-367 6319 0
-370 6319 0
-373 6319 0
-376 6319 0
-379 6319 0
-388 6319 0
-389 6319 0
-390 6319 0
-391 6319 0
-392 6319 0
-393 6319 0
-394 6319 0
-395 6319 0
-396 6319 0
-6319 393 361 352 388 349 358 355 362 363 364 367 370 373 379 359 360 389 390 376 392 394 395 396 391 0
-6320 0
-607 6321 0
-608 6321 0
-609 6321 0
-610 6321 0
-611 6321 0
-612 6321 0
-652 6321 0
-653 6321 0
-654 6321 0
-655 6321 0
-656 6321 0
-657 6321 0
-664 6321 0
-665 6321 0
-666 6321 0
-712 6321 0
-713 6321 0
-714 6321 0
-715 6321 0
-716 6321 0
-717 6321 0
-718 6321 0
-719 6321 0
-720 6321 0
-739 6321 0
-740 6321 0
-741 6321 0
-742 6321 0
-743 6321 0
-744 6321 0
-6321 712 744 743 666 665 608 657 714 612 664 742 718 653 720 607 717 652 715 656 716 719 654 611 655 610 609 740 739 741 713 0
-6322 0
-6323 0
-6324 0
-1543 6325 0
-1546 6325 0
-1549 6325 0
-1554 6325 0
-1556 6325 0
6325 -1557 0
-1558 6325 0
-1561 6325 0
-1564 6325 0
-1567 6325 0
-1570 6325 0
-1573 6325 0
-1582 6325 0
-1583 6325 0
-1584 6325 0
-1585 6325 0
-1586 6325 0
-1587 6325 0
-1588 6325 0
-1589 6325 0
-1590 6325 0
-6325 1557 1543 1585 1554 1567 1553 1552 1555 1564 1549 1558 1582 1570 1573 1561 1583 1584 1546 1586 1587 1588 1589 1590 1556 0
-6326 0
-6327 0
-6328 0
-6321 -6319 0
-6319 -6325 0
-6321 -6325 0
6319 6325 6321 6322 6323 6324 6320 6326 6327 6328 0
-33 6329 0
-34 6329 0
-39 6329 0
-40 6329 0
-53 6329 0
-54 6329 0
-62 6329 0
-63 6329 0
-68 6329 0
-69 6329 0
-79 6329 0
-80 6329 0
-83 6329 0
-84 6329 0
-93 6329 0
-94 6329 0
-95 6329 0
-110 6329 0
-111 6329 0
-114 6329 0
-115 6329 0
-123 6329 0
-124 6329 0
-129 6329 0
-130 6329 0
-135 6329 0
-136 6329 0
-149 6329 0
-150 6329 0
-6329 39 80 40 62 94 150 136 34 69 63 54 149 55 130 68 110 53 83 79 111 93 114 123 124 115 33 84 95 129 135 0
-6330 0
-928 6331 0
-934 6331 0
-947 6331 0
-948 6331 0
-949 6331 0
-956 6331 0
-957 6331 0
-962 6331 0
-963 6331 0
-977 6331 0
-988 6331 0
-989 6331 0
-1005 6331 0
-1008 6331 0
-1009 6331 0
-1017 6331 0
-1018 6331 0
-1024 6331 0
-1043 6331 0
-6331 949 963 974 1043 957 933 1009 988 1018 947 989 1044 1029 956 978 1008 928 927 1004 1005 973 1024 987 962 1023 948 934 1017 977 1030 0
-6332 0
-1077 6333 0
-1078 6333 0
-1083 6333 0
-1084 6333 0
-1097 6333 0
-1098 6333 0
-1099 6333 0
-1106 6333 0
-1107 6333 0
-1112 6333 0
-1113 6333 0
-1123 6333 0
-1124 6333 0
-1128 6333 0
-1137 6333 0
-1138 6333 0
-1139 6333 0
-1154 6333 0
-1155 6333 0
-1158 6333 0
-1159 6333 0
-1167 6333 0
-1168 6333 0
-1173 6333 0
-1174 6333 0
-1180 6333 0
-1193 6333 0
-1194 6333 0
-6333 1158 1124 1127 1154 1194 1128 1097 1106 1179 1084 1167 1193 1083 1168 1138 1077 1113 1174 1173 1137 1098 1112 1159 1078 1139 1155 1180 1107 1099 1123 0
-6334 0
-1356 6335 0
-1364 6335 0
-1367 6335 0
-1369 6335 0
-1382 6335 0
-1385 6335 0
-1388 6335 0
-1391 6335 0
-6335 1369 1364 1391 1367 1385 1371 1358 1356 1388 1382 0
-6336 0
-1554 6337 0
-1556 6337 0
-1565 6337 0
-1568 6337 0
-1571 6337 0
-1574 6337 0
-1576 6337 0
-1578 6337 0
-1586 6337 0
-1589 6337 0
-6337 1578 1568 1565 1574 1554 1556 1586 1589 1576 1571 0
-6338 0
-6333 -6329 0
-6329 -6335 0
-6329 -6337 0
-6331 -6333 0
-6331 -6335 0
-6331 -6337 0
-6333 -6335 0
-6333 -6337 0
-6335 -6337 0
6329 6331 6333 6335 6337 6334 6332 6336 6330 6338 0
-1 6339 0
-56 6339 0
-6340 0
-895 6341 0
-898 6341 0
-901 6341 0
-950 6341 0
-951 6341 0
-958 6341 0
-965 6341 0
-966 6341 0
-980 6341 0
-992 6341 0
-993 6341 0
-998 6341 0
-999 6341 0
-1012 6341 0
-6341 935 998 920 1000 901 916 1012 966 922 1034 921 919 907 902 1040 913 930 951 936 941 942 899 929 954 908 895 980 960 961 1001 965 969 970 975 976 915 914 983 984 979 993 992 958 999 959 1010 1011 950 955 1026 1027 1025 1031 1032 1033 1028 1037 898 1038 1039 0
-6342 0
-1048 6343 0
-1049 6343 0
-1052 6343 0
-1065 6343 0
-1066 6343 0
-1069 6343 0
-1070 6343 0
-1079 6343 0
-1080 6343 0
-1100 6343 0
-1101 6343 0
-1108 6343 0
-1109 6343 0
-1115 6343 0
-1116 6343 0
-1120 6343 0
-1142 6343 0
-1143 6343 0
-1148 6343 0
-1149 6343 0
-1150 6343 0
-1151 6343 0
-1177 6343 0
-1178 6343 0
-1187 6343 0
-1188 6343 0
-6343 1178 1085 1119 1109 1177 1108 1051 1065 1126 1045 1130 1071 1100 1143 1116 1149 1069 1080 1072 1104 1115 1064 1151 1188 1148 1101 1058 1111 1125 1066 1129 1120 1162 1052 1092 1049 1063 1133 1057 1142 1187 1110 1134 1150 1160 1161 1070 1175 1048 1105 1086 1181 1182 1176 1183 1184 1079 1189 1190 1091 0
-6344 0
-1346 6345 0
-1357 6345 0
-1359 6345 0
-1363 6345 0
-1365 6345 0
-1366 6345 0
-1368 6345 0
-1373 6345 0
-1374 6345 0
-1376 6345 0
-1379 6345 0
-1387 6345 0
-1389 6345 0
-1390 6345 0
-1392 6345 0
-6345 1363 1345 1347 1392 1368 1359 1378 1357 1374 1387 1379 1389 1390 1346 1365 1375 1366 1373 1376 0
-6346 0
-1543 6347 0
-1544 6347 0
-1545 6347 0
-1546 6347 0
-1547 6347 0
-1548 6347 0
-1555 6347 0
6347 -1557 0
-1559 6347 0
-1562 6347 0
-1570 6347 0
-1572 6347 0
-1573 6347 0
-1575 6347 0
-1583 6347 0
-1584 6347 0
-6347 1559 1547 1582 1572 1557 1546 1562 1545 1544 1583 1548 1584 1581 1543 1573 1575 1570 1555 1580 0
-6348 0
-6339 -6341 -6343 0
-6339 -6341 -6345 0
-6339 -6341 -6347 0
-6339 -6343 -6345 0
-6339 -6343 -6347 0
-6339 -6345 -6347 0
-6343 -6345 -6347 0
6341 6343 6345 6347 6344 6342 6346 6340 6348 0
-2 6349 0
-6 6349 0
-12 6349 0
-15 6349 0
-17 6349 0
-23 6349 0
-24 6349 0
-29 6349 0
-32 6349 0
-38 6349 0
-44 6349 0
-46 6349 0
-49 6349 0
-58 6349 0
-70 6349 0
-73 6349 0
-74 6349 0
-88 6349 0
-92 6349 0
-102 6349 0
-112 6349 0
-113 6349 0
-119 6349 0
-125 6349 0
-141 6349 0
-142 6349 0
-147 6349 0
-6349 11 6 16 58 45 113 37 17 148 12 147 23 15 9 30 18 32 50 38 43 44 78 46 49 24 51 100 29 59 10 3 74 70 31 87 77 2 52 91 92 88 101 97 103 108 109 96 102 73 120 121 122 112 119 126 127 128 141 125 142 0
-6350 0
-6351 904 900 905 906 1013 912 909 925 1014 911 903 917 918 923 924 964 926 1036 932 937 938 939 940 943 944 945 946 910 990 985 931 952 971 972 1015 995 986 982 1016 991 994 896 996 997 1002 1003 1006 1007 981 968 967 953 1019 897 1021 1020 1035 1022 1041 1042 0
-6352 0
-1047 6353 0
-1059 6353 0
-1060 6353 0
-1081 6353 0
-1082 6353 0
-1088 6353 0
-1094 6353 0
-1102 6353 0
-1103 6353 0
-1114 6353 0
-1117 6353 0
-1121 6353 0
-1122 6353 0
-1131 6353 0
-1132 6353 0
-1145 6353 0
-1153 6353 0
-6353 1192 1114 1059 1055 1067 1121 1117 1089 1047 1135 1163 1136 1075 1157 1131 1152 1076 1081 1082 1164 1144 1050 1191 1053 1095 1096 1140 1102 1093 1132 1087 1094 1060 1145 1165 1088 1169 1153 1141 1172 1054 1146 1147 1062 1068 1156 1103 1090 1061 1073 1056 1074 1170 1166 1118 1171 1186 1046 1185 1122 0
-6354 0
-1349 6355 0
-1350 6355 0
-1351 6355 0
-1352 6355 0
-1353 6355 0
-1360 6355 0
-1361 6355 0
-1362 6355 0
-1381 6355 0
-1383 6355 0
-1384 6355 0
-1386 6355 0
-6355 1370 1352 1350 1381 1362 1386 1377 1384 1361 1380 1348 1355 1360 1383 1351 1353 1349 1372 1354 0
-6356 0
-1550 6357 0
-1558 6357 0
6357 -1560 0
6357 -1563 0
-1567 6357 0
6357 -1569 0
6357 -1585 0
-1587 6357 0
-1588 6357 0
-1590 6357 0
-6357 1567 1551 1585 1577 1550 1564 1552 1563 1558 1566 1549 1569 1560 1561 1579 1587 1588 1590 1553 0
-6358 0
-6349 -6355 -6353 0
-6349 -6353 -6357 0
-6355 -6353 -6357 0
6349 6351 6353 6355 6350 6354 6352 6356 6358 0
-6359 11 3 21 147 113 75 112 6 104 141 7 2 17 92 43 23 38 91 148 49 44 12 65 27 18 74 142 76 28 37 85 70 144 126 24 99 97 102 132 105 22 73 116 117 103 96 125 50 119 127 120 131 64 138 86 8 128 143 137 98 0
-6360 0
-6361 900 992 902 905 917 931 938 1014 921 911 915 998 918 896 985 916 932 937 1038 943 944 922 959 1007 906 912 979 970 969 964 980 993 990 991 958 1013 996 997 999 967 1006 901 1010 1011 986 968 1019 897 1021 1020 1022 1026 1031 1032 1035 1025 1037 1036 1041 1042 0
-6362 0
-1046 6363 0
-1051 6363 0
-1065 6363 0
-1081 6363 0
-1082 6363 0
-1088 6363 0
-1094 6363 0
-1108 6363 0
-1114 6363 0
-1140 6363 0
-1142 6363 0
-1143 6363 0
-1148 6363 0
-1163 6363 0
-1176 6363 0
-1181 6363 0
-1187 6363 0
-6363 1135 1118 1067 1120 1071 1065 1119 1147 1108 1169 1182 1170 1160 1188 1130 1051 1175 1136 1072 1066 1088 1172 1087 1164 1061 1187 1047 1114 1056 1117 1141 1163 1171 1052 1157 1094 1082 1191 1161 1143 1068 1181 1142 1046 1093 1156 1146 1149 1129 1050 1062 1176 1185 1148 1192 1186 1081 1140 1055 1109 0
-6364 0
-1348 6365 0
-1350 6365 0
-1353 6365 0
-1360 6365 0
-1362 6365 0
-1383 6365 0
-1392 6365 0
-6365 1370 1353 1350 1389 1351 1386 1392 1384 1381 1362 1383 1361 1372 1360 1387 1348 1390 1373 1374 0
-6366 0
-1547 6367 0
-1550 6367 0
-1561 6367 0
-1563 6367 0
-1585 6367 0
-1588 6367 0
-6367 1580 1559 1550 1587 1588 1551 1563 1547 1577 1581 1579 1560 1544 1549 1590 1558 1562 1561 1585 0
-6368 0
-6365 -6363 -6367 0
6359 6361 6363 6365 6360 6364 6362 6366 6368 0
6363 6365 6367 6359 6364 6362 6366 6360 6368 0
-9 6369 0
-10 6369 0
-15 6369 0
-16 6369 0
-29 6369 0
-30 6369 0
-31 6369 0
-32 6369 0
-45 6369 0
-46 6369 0
-51 6369 0
-52 6369 0
-55 6369 0
-58 6369 0
-59 6369 0
-77 6369 0
-78 6369 0
-79 6369 0
-80 6369 0
-87 6369 0
-88 6369 0
-93 6369 0
-100 6369 0
-101 6369 0
-108 6369 0
-109 6369 0
-114 6369 0
-115 6369 0
-121 6369 0
-122 6369 0
-903 6371 0
-909 6371 0
-924 6371 0
-925 6371 0
-940 6371 0
-946 6371 0
-949 6371 0
-952 6371 0
-953 6371 0
-973 6371 0
-974 6371 0
-981 6371 0
-982 6371 0
-987 6371 0
-994 6371 0
-995 6371 0
-1002 6371 0
-1003 6371 0
-1008 6371 0
-1009 6371 0
-1015 6371 0
-1016 6371 0
-1053 6373 0
-1054 6373 0
-1059 6373 0
-1060 6373 0
-1074 6373 0
-1075 6373 0
-1076 6373 0
-1089 6373 0
-1090 6373 0
-1095 6373 0
-1096 6373 0
-1099 6373 0
-1102 6373 0
-1103 6373 0
-1122 6373 0
-1123 6373 0
-1124 6373 0
-1131 6373 0
-1132 6373 0
-1137 6373 0
-1144 6373 0
-1145 6373 0
-1152 6373 0
-1153 6373 0
-1158 6373 0
-1159 6373 0
-1165 6373 0
-1166 6373 0
-6373 1089 1054 1053 1103 1121 1123 1095 1073 1131 1075 1153 1132 1124 1137 1102 1165 1099 1166 1159 1090 1060 1059 1076 1122 1096 1074 1152 1145 1158 1144 0
-1349 6375 0
-1352 6375 0
-1377 6375 0
-1380 6375 0
-1388 6375 0
-1391 6375 0
-1553 6377 0
-1564 6377 0
6377 -1565 0
-1566 6377 0
-1567 6377 0
6377 -1568 0
-1569 6377 0
-6377 1552 1567 1568 1566 1564 1565 1569 1553 0
-6369 -6373 0
-6369 -6375 0
-6369 -6377 0
-6373 -6371 0
-6375 -6371 0
-6371 -6377 0
-6375 -6373 0
-6373 -6377 0
-6375 -6377 0
-1 6379 0
-6379 94 5 57 33 133 4 129 61 26 19 35 25 150 34 20 40 14 48 13 41 54 1 36 60 56 62 63 66 39 68 71 72 47 69 81 82 89 90 53 83 106 84 110 95 118 107 111 123 124 42 130 67 134 139 140 135 136 145 146 149 0
-6380 0
-950 6381 0
-951 6381 0
-956 6381 0
-957 6381 0
-988 6381 0
-989 6381 0
-1017 6381 0
-1018 6381 0
-6382 0
-1048 6383 0
-1049 6383 0
-1069 6383 0
-1070 6383 0
-1079 6383 0
-1080 6383 0
-1083 6383 0
-1084 6383 0
-1100 6383 0
-1101 6383 0
-1106 6383 0
-1107 6383 0
-1112 6383 0
-1116 6383 0
-1139 6383 0
-1150 6383 0
-1151 6383 0
-1167 6383 0
-1177 6383 0
-1178 6383 0
-1193 6383 0
-6383 1168 1104 1092 1127 1085 1110 1048 1098 1045 1112 1100 1106 1058 1190 1078 1116 1091 1128 1189 1086 1134 1154 1084 1105 1151 1115 1178 1111 1079 1107 1069 1138 1177 1183 1080 1125 1097 1126 1070 1167 1162 1133 1150 1194 1101 1155 1139 1173 1174 1083 1113 1193 1180 1049 1179 1057 1064 1184 1077 1063 0
-6384 0
-1347 6385 0
-1357 6385 0
-1359 6385 0
-1363 6385 0
-1364 6385 0
-1366 6385 0
-1367 6385 0
-1379 6385 0
-1382 6385 0
-1385 6385 0
1369 1376 1347 1367 1363 1364 1368 1345 1359 1358 1365 1371 1346 1379 1385 -6385 1356 1366 1378 1375 1357 1382 0
-6386 0
-1543 6387 0
-1545 6387 0
-1546 6387 0
-1548 6387 0
-1554 6387 0
-1555 6387 0
-1556 6387 0
6387 -1557 0
-1570 6387 0
-1571 6387 0
-1572 6387 0
-1573 6387 0
-1574 6387 0
-1575 6387 0
-1576 6387 0
-1578 6387 0
-1586 6387 0
-1589 6387 0
-6387 1554 1543 1557 1546 1574 1575 1586 1582 1584 1572 1571 1589 1570 1576 1555 1573 1583 1578 1556 1545 1548 0
-6388 0
-6381 -6383 -6379 0
-6381 -6379 -6385 0
-6379 -6383 -6385 0
-6379 -6383 -6387 0
-6379 -6385 -6387 0
6383 6379 6385 6387 6384 6382 6386 6380 6388 0
-1 6389 0
-5 6389 0
-25 6389 0
-47 6389 0
-56 6389 0
-71 6389 0
-89 6389 0
-90 6389 0
-139 6389 0
-140 6389 0
-6389 106 9 16 61 89 25 45 133 13 10 5 146 29 30 4 32 35 19 1 20 15 46 14 48 51 52 42 57 58 31 36 60 56 66 71 72 77 59 47 78 87 88 26 90 100 101 81 41 108 109 118 121 122 82 107 139 140 67 134 145 0
-6390 0
-913 6391 0
-950 6391 0
-951 6391 0
-952 6391 0
-953 6391 0
-982 6391 0
-994 6391 0
-995 6391 0
-1000 6391 0
-1001 6391 0
-1016 6391 0
-6392 0
-1048 6393 0
-1049 6393 0
-1059 6393 0
-1060 6393 0
-1069 6393 0
-1070 6393 0
-1079 6393 0
-1080 6393 0
-1089 6393 0
-1090 6393 0
-1092 6393 0
-1100 6393 0
-1101 6393 0
-1102 6393 0
-1103 6393 0
-1116 6393 0
-1131 6393 0
-1145 6393 0
-1150 6393 0
-1151 6393 0
-1162 6393 0
-1165 6393 0
-1166 6393 0
-1177 6393 0
-1178 6393 0
-6393 1162 1131 1059 1057 1045 1116 1190 1058 1091 1102 1165 1103 1152 1069 1074 1177 1079 1060 1104 1085 1073 1134 1086 1111 1064 1095 1096 1080 1089 1151 1126 1075 1105 1063 1054 1100 1144 1183 1101 1189 1122 1121 1133 1178 1049 1150 1092 1132 1125 1070 1145 1053 1090 1153 1115 1166 1076 1110 1048 1184 0
-6394 0
-1349 6395 0
-1357 6395 0
-1359 6395 0
-1363 6395 0
-1365 6395 0
-1366 6395 0
-1377 6395 0
-1379 6395 0
-1380 6395 0
-6395 1357 1349 1363 1379 1376 1355 1368 1352 1366 1359 1346 1380 1345 1365 1347 1378 1375 1377 1354 0
-6396 0
-1543 6397 0
-1545 6397 0
-1546 6397 0
-1548 6397 0
-1553 6397 0
-1564 6397 0
-1566 6397 0
-1567 6397 0
-1569 6397 0
-1582 6397 0
-1583 6397 0
-1584 6397 0
-6397 1564 1546 1582 1557 1548 1567 1543 1545 1566 1584 1569 1570 1572 1573 1575 1553 1583 1552 1555 0
-6398 0
-6391 -6393 -6389 0
-6391 -6389 -6395 0
-6389 -6393 -6395 0
-6389 -6393 -6397 0
-6389 -6397 -6395 0
-6393 -6397 -6395 0
6393 6389 6395 6397 6394 6392 6396 6390 6398 0
6403 -1078 0
6403 -1114 0
-1136 6403 0
-1140 6403 0
-1141 6403 0
-1147 6403 0
-1156 6403 0
-1157 6403 0
-1163 6403 0
-6403 1179 1047 1067 1127 1192 1146 1050 1164 1136 1135 1169 1170 1128 1114 1068 1180 1163 1193 1055 1097 1167 1194 1082 1113 1088 1171 1098 1093 1062 1106 1056 1138 1117 1107 1046 1191 1112 1147 1154 1155 1156 1077 1140 1061 1094 1081 1141 1084 1078 1118 1168 1174 1157 1087 1186 1083 1185 1172 1173 1139 0
6405 -1367 0
6405 -1383 0
6407 -1550 0
6407 -1561 0
-6403 -6405 -6407 0
-7 6409 0
-8 6409 0
-21 6409 0
-22 6409 0
-27 6409 0
-28 6409 0
-64 6409 0
-65 6409 0
-75 6409 0
-76 6409 0
-79 6409 0
-85 6409 0
-86 6409 0
-98 6409 0
-99 6409 0
-104 6409 0
-105 6409 0
-115 6409 0
-116 6409 0
-117 6409 0
-131 6409 0
-132 6409 0
-137 6409 0
-138 6409 0
-143 6409 0
-144 6409 0
-6409 27 64 132 85 144 93 28 7 75 8 76 79 21 80 86 55 65 99 143 105 104 115 114 117 116 131 22 98 137 138 0
-6410 0
-901 6411 0
-902 6411 0
-915 6411 0
-916 6411 0
-921 6411 0
-922 6411 0
-949 6411 0
-958 6411 0
-959 6411 0
-969 6411 0
-970 6411 0
-973 6411 0
-974 6411 0
-979 6411 0
-980 6411 0
-987 6411 0
-992 6411 0
-993 6411 0
-998 6411 0
-999 6411 0
-1008 6411 0
-1009 6411 0
-1010 6411 0
-1011 6411 0
-1025 6411 0
-1026 6411 0
-1031 6411 0
-1032 6411 0
-1037 6411 0
-1038 6411 0
-6411 902 987 958 959 1010 992 1009 921 1038 969 915 901 970 999 979 1008 980 993 922 998 974 916 973 949 1011 1026 1031 1032 1037 1025 0
-6412 0
-1051 6413 0
-1052 6413 0
-1065 6413 0
-1066 6413 0
-1071 6413 0
-1072 6413 0
-1099 6413 0
-1108 6413 0
-1109 6413 0
-1119 6413 0
-1120 6413 0
-1124 6413 0
-1130 6413 0
-1137 6413 0
-1142 6413 0
-1143 6413 0
-1148 6413 0
-1149 6413 0
-1158 6413 0
-1159 6413 0
-1161 6413 0
-1176 6413 0
-1181 6413 0
-1182 6413 0
-1187 6413 0
-6413 1148 1119 1124 1120 1065 1187 1071 1158 1161 1109 1108 1130 1123 1099 1188 1066 1149 1176 1129 1137 1160 1159 1175 1051 1182 1052 1143 1142 1181 1072 0
-6414 0
-1373 6415 0
-1374 6415 0
-1387 6415 0
-1388 6415 0
-1389 6415 0
-1390 6415 0
-1391 6415 0
-1392 6415 0
-6415 1374 1373 1389 1391 1392 1387 1388 1390 0
-6416 0
-1544 6417 0
-1547 6417 0
-1559 6417 0
-1562 6417 0
-1565 6417 0
-1568 6417 0
-1580 6417 0
-1581 6417 0
-6417 1580 1565 1568 1559 1547 1562 1544 1581 0
-6418 0
-6409 -6411 0
-6409 -6413 0
-6409 -6415 0
-6409 -6417 0
-6413 -6411 0
-6415 -6411 0
-6411 -6417 0
-6415 -6413 0
-6413 -6417 0
-6415 -6417 0
6409 6411 6413 6415 6417 6414 6412 6416 6410 6418 0
-371 6419 0
6419 -374 0
-377 6419 0
-380 6419 0
-392 6419 0
-395 6419 0
-6419 382 371 362 377 392 380 360 374 384 395 0
-627 6421 0
-628 6421 0
-634 6421 0
-649 6421 0
-656 6421 0
-662 6421 0
-663 6421 0
-673 6421 0
-677 6421 0
-678 6421 0
-687 6421 0
-688 6421 0
-689 6421 0
-704 6421 0
-705 6421 0
-708 6421 0
-709 6421 0
-723 6421 0
-729 6421 0
-730 6421 0
-744 6421 0
-778 6423 0
-784 6423 0
-799 6423 0
-807 6423 0
-813 6423 0
-824 6423 0
-837 6423 0
-838 6423 0
-839 6423 0
-855 6423 0
-859 6423 0
-868 6423 0
-873 6423 0
-874 6423 0
-880 6423 0
-894 6423 0
-2101 6425 0
-2102 6425 0
-2111 6425 0
-2113 6425 0
-2116 6425 0
-2118 6425 0
-2127 6425 0
-2130 6425 0
-2133 6425 0
-2135 6425 0
-6425 2130 2101 2127 2133 2111 2116 2118 2113 2102 2135 0
-2146 6427 0
-2149 6427 0
-2157 6427 0
-2160 6427 0
-2163 6427 0
-2164 6427 0
-2171 6427 0
-2173 6427 0
-2181 6427 0
-2183 6427 0
-6427 2183 2171 2146 2163 2164 2181 2160 2149 2173 2157 0
-6421 -6419 0
-6425 -6419 0
-6427 -6419 0
-6425 -6421 0
-6421 -6427 0
-6423 -6425 0
-6425 -6427 0
-352 6429 0
-6429 388 361 352 350 353 378 349 354 381 387 368 363 390 389 379 376 365 351 386 0
-6430 0
-6431 699 659 669 725 602 726 658 599 607 710 651 680 701 684 670 700 615 732 676 641 654 635 661 728 692 616 622 665 636 655 675 613 739 693 642 595 740 620 712 683 614 601 711 621 733 630 666 608 619 660 727 629 598 731 679 698 734 650 737 738 0
-6432 0
-6434 0
-6435 2125 2110 2093 2092 2108 2136 2109 2124 2114 2134 2104 2090 2091 2103 2089 2112 2117 2121 2115 0
-6436 0
-2140 6437 0
-2141 6437 0
-2142 6437 0
-2148 6437 0
-2159 6437 0
-2168 6437 0
-6437 2159 2142 2168 2156 2158 2169 2148 2166 2172 2176 2178 2141 2174 2150 2165 2177 2147 2175 2140 0
-6438 0
6429 6431 6435 6437 6434 6430 6436 6432 6438 0
6439 -355 0
6439 -369 0
6439 -391 0
6439 -393 0
-6440 0
-597 6441 0
-667 6441 0
-703 6441 0
702 713 644 667 736 685 671 612 609 706 672 600 610 664 611 742 -6441 596 631 626 686 605 638 703 707 682 720 617 652 681 653 714 639 604 721 624 690 603 668 640 623 691 694 696 625 645 646 618 637 697 715 716 719 643 606 722 632 735 597 741 695 0
-6442 0
-747 6443 0
-750 6443 0
-789 6443 0
-6443 832 753 768 755 760 853 781 802 750 761 793 767 759 773 774 754 796 865 846 787 788 789 776 746 790 795 782 814 803 775 762 756 852 822 831 821 794 817 818 836 844 845 835 847 840 856 864 747 863 857 841 866 869 870 871 872 885 886 891 892 0
-6444 0
-2094 6445 0
-6445 2131 2122 2100 2132 2094 2106 2098 2105 2097 2128 2119 2120 2129 2095 2096 2099 2126 2123 2107 0
-6446 0
-2145 6447 0
-2167 6447 0
-2180 6447 0
-2182 6447 0
-6447 2153 2137 2182 2145 2143 2154 2162 2184 2151 2139 2167 2180 2138 2170 2161 2179 2152 2144 2155 0
-6448 0
-6445 -6439 -6441 0
-6447 -6439 -6441 0
-6443 -6447 -6439 0
6441 6443 6445 6447 6444 6442 6446 6440 6448 0
6449 -393 0
-6449 393 357 366 350 394 383 365 391 367 368 369 356 355 386 387 353 364 396 385 0
6451 -667 0
-2152 6457 0
6457 -2166 0
-6457 2152 2138 2161 2151 2172 2166 2175 2176 2145 2153 2137 2170 2174 2182 2184 2143 2162 2180 2165 0
-6457 -6451 -6449 0
-370 6459 0
-371 6459 0
-372 6459 0
-373 6459 0
6459 -374 0
-375 6459 0
-6459 373 372 359 370 374 371 375 358 0
-623 6461 0
-624 6461 0
-625 6461 0
-626 6461 0
-640 6461 0
-646 6461 0
-649 6461 0
-671 6461 0
-672 6461 0
6461 -673 0
-674 6461 0
6461 -687 0
-702 6461 0
-703 6461 0
-708 6461 0
-709 6461 0
-715 6461 0
-2097 6465 0
-2098 6465 0
-2099 6465 0
-2100 6465 0
-2101 6465 0
-2122 6465 0
-2123 6465 0
-2135 6465 0
-6465 2098 2122 2100 2101 2135 2123 2097 2099 0
-2139 6467 0
-2144 6467 0
-2154 6467 0
-2155 6467 0
-2164 6467 0
-2167 6467 0
-2173 6467 0
-2179 6467 0
-6467 2179 2144 2173 2167 2154 2164 2139 2155 0
-6461 -6459 0
-6465 -6459 0
-6459 -6467 0
-6465 -6461 0
-6467 -6461 0
-6465 -6467 0
-811 6473 0
6475 -2127 0
6477 -2169 0
-6473 -6475 -6477 0
6487 -2139 0
-6487 2167 2140 2158 2154 2141 2179 2169 2142 2178 2177 2155 2159 2147 2139 2156 2150 2168 2148 2144 0
-391 6489 0
-393 6489 0
-6489 393 360 367 366 364 355 391 357 369 356 380 382 383 384 385 377 362 394 395 396 392 0
-6490 0
-597 6491 0
-678 6491 0
-6491 685 612 697 667 729 736 633 657 618 628 664 704 644 744 611 668 707 705 647 720 632 721 648 689 663 600 662 643 606 596 722 688 656 617 691 678 605 686 631 713 637 690 706 717 718 719 634 627 638 723 724 714 730 735 597 741 742 743 696 677 0
-6492 0
-6494 0
-2094 6495 0
-2096 6495 0
-2113 6495 0
-2126 6495 0
-2131 6495 0
-2133 6495 0
-6496 0
-2138 6497 0
-2143 6497 0
-2145 6497 0
-2146 6497 0
-2151 6497 0
-6497 2182 2138 2151 2160 2149 2157 2163 2184 2146 2162 2170 2171 2180 2153 2143 2137 2181 2145 2183 2161 2152 0
-6498 0
-6495 -6491 -6489 0
-6495 -6497 -6489 0
6489 6491 6495 6497 6494 6490 6496 6492 6498 0
-350 6499 0
-353 6499 0
-365 6499 0
-368 6499 0
-371 6499 0
6499 -374 0
-601 6501 0
-621 6501 0
-622 6501 0
-649 6501 0
-669 6501 0
6501 -673 0
-674 6501 0
-679 6501 0
6501 -687 0
-698 6501 0
-708 6501 0
-709 6501 0
-710 6501 0
-711 6501 0
-731 6501 0
-799 6503 0
-808 6503 0
-809 6503 0
-881 6503 0
-2091 6505 0
-2093 6505 0
-2101 6505 0
-2108 6505 0
-2109 6505 0
-2134 6505 0
-2135 6505 0
-2136 6505 0
-6505 2136 2101 2135 2093 2091 2109 2134 2108 0
-2164 6507 0
-2165 6507 0
-2166 6507 0
-2172 6507 0
-2173 6507 0
-2174 6507 0
-2175 6507 0
-2176 6507 0
-6507 2176 2175 2164 2166 2174 2165 2172 2173 0
-6501 -6499 0
-6499 -6507 0
-6505 -6501 0
-6507 -6501 0
-6503 -6507 0
-6505 -6507 0
-31 6509 0
-36 6509 0
-37 6509 0
-42 6509 0
-50 6509 0
-56 6509 0
-59 6509 0
-61 6509 0
-65 6509 0
-67 6509 0
-73 6509 0
-76 6509 0
-78 6509 0
-82 6509 0
-92 6509 0
-96 6509 0
-107 6509 0
-108 6509 0
-113 6509 0
-117 6509 0
-121 6509 0
-126 6509 0
-127 6509 0
-133 6509 0
-138 6509 0
-146 6509 0
-148 6509 0
-363 6511 0
-366 6511 0
-368 6511 0
-375 6511 0
-381 6511 0
-383 6511 0
-396 6511 0
-6511 386 368 389 366 363 375 358 383 396 381 0
-625 6513 0
-630 6513 0
-631 6513 0
-636 6513 0
-644 6513 0
-646 6513 0
-650 6513 0
-653 6513 0
-655 6513 0
-659 6513 0
-661 6513 0
-667 6513 0
-670 6513 0
-672 6513 0
-676 6513 0
-686 6513 0
-690 6513 0
-692 6513 0
-701 6513 0
-702 6513 0
-707 6513 0
-711 6513 0
-715 6513 0
-720 6513 0
-721 6513 0
-726 6513 0
-727 6513 0
-732 6513 0
-740 6513 0
-742 6513 0
-1075 6515 0
-1080 6515 0
-1081 6515 0
-1086 6515 0
-1094 6515 0
-1096 6515 0
-1103 6515 0
-1105 6515 0
-1109 6515 0
-1111 6515 0
-1117 6515 0
-1120 6515 0
-1122 6515 0
-1126 6515 0
-1136 6515 0
-1140 6515 0
-1142 6515 0
-1151 6515 0
-1157 6515 0
-1165 6515 0
-1171 6515 0
-1176 6515 0
-1177 6515 0
-1182 6515 0
-1190 6515 0
-1192 6515 0
-6515 1157 1126 1120 1103 1190 1117 1182 1192 1161 1165 1152 1081 1171 1151 1094 1176 1111 1080 1086 1075 1100 1177 1142 1109 1105 1136 1140 1170 1122 1096 0
-1361 6517 0
6517 -1368 0
-1377 6517 0
6517 -1379 0
-1386 6517 0
-1392 6517 0
-6517 1373 1392 1354 1379 1386 1370 1377 1368 1361 1359 0
-6509 -6511 0
-6509 -6515 0
-6509 -6517 0
-6511 -6513 0
-6511 -6515 0
-6511 -6517 0
-6515 -6513 0
-6513 -6517 0
-6515 -6517 0
-9 6519 0
-19 6519 0
-23 6519 0
-24 6519 0
-25 6519 0
-27 6519 0
-57 6519 0
-69 6519 0
-89 6519 0
-101 6519 0
-135 6519 0
-140 6519 0
-141 6519 0
-142 6519 0
-6519 11 6 101 32 27 15 46 143 80 25 58 147 149 23 44 2 34 30 40 29 9 17 66 4 63 38 128 21 55 69 72 74 141 64 83 86 77 70 89 68 95 87 103 109 111 112 114 119 97 130 134 88 136 57 19 135 24 140 137 142 0
-6520 0
-351 6521 0
-355 6521 0
-356 6521 0
-369 6521 0
-372 6521 0
-377 6521 0
-384 6521 0
-391 6521 0
-393 6521 0
-6521 393 367 384 349 356 369 355 351 357 374 350 373 362 377 391 359 385 392 372 0
-6522 0
-596 6523 0
-598 6523 0
-600 6523 0
-609 6523 0
-611 6523 0
-615 6523 0
-617 6523 0
-621 6523 0
-623 6523 0
-626 6523 0
-628 6523 0
-632 6523 0
-634 6523 0
-638 6523 0
-640 6523 0
-649 6523 0
-651 6523 0
-652 6523 0
-657 6523 0
-658 6523 0
-662 6523 0
-663 6523 0
-664 6523 0
-666 6523 0
-668 6523 0
-674 6523 0
-680 6523 0
-681 6523 0
-682 6523 0
-683 6523 0
-689 6523 0
-695 6523 0
-697 6523 0
-706 6523 0
-708 6523 0
-713 6523 0
-729 6523 0
-731 6523 0
-735 6523 0
-736 6523 0
-737 6523 0
-741 6523 0
-743 6523 0
-6523 729 626 651 671 628 736 632 660 619 611 680 618 674 664 605 722 600 683 689 734 668 697 691 681 666 658 603 640 663 724 621 634 596 638 682 623 657 615 652 695 706 728 609 613 705 649 713 708 617 737 598 730 624 703 735 662 731 741 743 677 0
-6524 0
-1046 6525 0
-1048 6525 0
-1053 6525 0
-1059 6525 0
-1061 6525 0
-1063 6525 0
-1065 6525 0
-1067 6525 0
-1069 6525 0
-1071 6525 0
-1074 6525 0
-1082 6525 0
-1088 6525 0
-1099 6525 0
-1101 6525 0
-1102 6525 0
-1107 6525 0
-1108 6525 0
-1110 6525 0
-1112 6525 0
-1113 6525 0
-1114 6525 0
-1116 6525 0
-1118 6525 0
-1121 6525 0
-1124 6525 0
-1127 6525 0
-1130 6525 0
-1131 6525 0
-1132 6525 0
-1133 6525 0
-1141 6525 0
-1147 6525 0
-1172 6525 0
-1174 6525 0
-1178 6525 0
-1179 6525 0
-1180 6525 0
-1181 6525 0
-1184 6525 0
-1185 6525 0
-1186 6525 0
-1187 6525 0
-1191 6525 0
-1193 6525 0
-6525 1116 1048 1110 1108 1061 1163 1099 1065 1073 1127 1156 1132 1124 1071 1131 1090 1059 1102 1082 1088 1101 1055 1078 1069 1191 1107 1145 1046 1158 1063 1172 1133 1153 1074 1068 1187 1112 1053 1114 1118 1121 1147 1130 1155 1139 1193 1113 1050 1141 1076 1179 1180 1181 1067 1184 1186 1185 1174 1178 1084 0
-6526 0
-1350 6527 0
-1358 6527 0
-1366 6527 0
6527 -1367 0
-1371 6527 0
-1372 6527 0
-1378 6527 0
-1381 6527 0
-1383 6527 0
6527 -1384 0
-1385 6527 0
6527 -1387 0
-1388 6527 0
-6528 0
-6519 -6521 -6525 0
-6519 -6527 -6521 0
-6519 -6527 -6523 0
-6519 -6527 -6525 0
-6521 -6523 -6525 0
-6527 -6521 -6523 0
-6527 -6521 -6525 0
-6527 -6523 -6525 0
6521 6519 6523 6525 6520 6524 6522 6526 6528 0
6529 -1 0
-3 6529 0
-7 6529 0
-10 6529 0
-12 6529 0
-13 6529 0
-16 6529 0
-18 6529 0
-20 6529 0
-22 6529 0
-26 6529 0
-28 6529 0
-33 6529 0
-39 6529 0
-43 6529 0
-45 6529 0
-47 6529 0
-48 6529 0
-49 6529 0
-51 6529 0
-53 6529 0
-54 6529 0
-75 6529 0
-79 6529 0
-84 6529 0
-85 6529 0
-90 6529 0
-93 6529 0
-94 6529 0
-99 6529 0
-100 6529 0
-102 6529 0
-104 6529 0
-105 6529 0
-110 6529 0
-115 6529 0
-116 6529 0
-118 6529 0
-120 6529 0
-122 6529 0
-123 6529 0
-125 6529 0
-129 6529 0
-131 6529 0
6529 -139 0
-144 6529 0
-352 6531 0
-353 6531 0
-354 6531 0
-361 6531 0
-364 6531 0
-365 6531 0
-370 6531 0
-371 6531 0
-376 6531 0
-378 6531 0
-379 6531 0
-380 6531 0
-382 6531 0
-387 6531 0
6531 -388 0
-390 6531 0
-394 6531 0
-395 6531 0
-6531 388 360 371 364 352 379 365 387 354 394 353 378 390 376 370 361 380 395 382 0
6533 -597 0
-622 6533 0
-627 6533 0
-637 6533 0
-642 6533 0
-656 6533 0
-669 6533 0
-679 6533 0
-684 6533 0
6533 -687 0
-694 6533 0
-696 6533 0
-698 6533 0
-699 6533 0
6533 -704 0
-709 6533 0
6533 -710 0
-716 6533 0
-718 6533 0
6535 -1047 0
6535 -1051 0
-1054 6535 0
-1057 6535 0
6535 -1060 0
6535 -1070 0
-1077 6535 0
6535 -1079 0
6535 -1083 0
-1089 6535 0
-1097 6535 0
-1098 6535 0
6535 -1104 0
6535 -1106 0
-1115 6535 0
-1123 6535 0
6535 -1125 0
6535 -1129 0
6535 -1134 0
6535 -1135 0
6535 -1137 0
-1138 6535 0
-1143 6535 0
6535 -1144 0
6535 -1149 0
-1150 6535 0
-1154 6535 0
-1159 6535 0
6535 -1164 0
6535 -1166 0
-1167 6535 0
6535 -1168 0
-1175 6535 0
6535 -1188 0
-1346 6537 0
6537 -1347 0
6537 -1351 0
6537 -1352 0
6537 -1353 0
6537 -1357 0
-1363 6537 0
-1364 6537 0
-1365 6537 0
-1375 6537 0
-1376 6537 0
-1382 6537 0
-1389 6537 0
-1390 6537 0
6537 -1391 0
-6537 1356 1389 1347 1363 1376 1364 1369 1345 1351 1357 1352 1382 1346 1391 1375 1374 1365 1390 1353 0
-6529 -6533 -6531 0
-6529 -6535 -6531 0
-6529 -6531 -6537 0
-6529 -6533 -6535 0
-6529 -6533 -6537 0
-6529 -6535 -6537 0
-6533 -6535 -6531 0
-6533 -6531 -6537 0
-6535 -6531 -6537 0
-1 6539 0
-97 6539 0
-105 6539 0
-118 6539 0
-128 6539 0
-6539 91 71 9 129 45 94 5 16 8 150 11 24 10 30 47 20 22 14 51 19 25 41 144 77 79 66 68 87 89 1 93 53 81 97 99 100 101 103 105 106 109 83 115 118 39 122 95 128 111 124 131 3 130 139 140 142 120 134 136 145 0
-6540 0
-352 6541 0
-370 6541 0
-371 6541 0
-372 6541 0
-376 6541 0
-377 6541 0
-378 6541 0
-385 6541 0
-388 6541 0
-394 6541 0
-395 6541 0
-6541 388 370 352 382 371 351 395 394 356 378 385 377 390 354 372 384 353 376 387 0
-6542 0
-595 6543 0
-597 6543 0
-599 6543 0
-602 6543 0
-603 6543 0
-604 6543 0
-605 6543 0
-619 6543 0
-624 6543 0
-639 6543 0
-641 6543 0
-645 6543 0
-647 6543 0
-671 6543 0
-673 6543 0
-675 6543 0
-677 6543 0
-681 6543 0
-683 6543 0
-685 6543 0
-687 6543 0
-694 6543 0
-695 6543 0
-697 6543 0
-699 6543 0
-700 6543 0
-703 6543 0
-705 6543 0
-709 6543 0
-722 6543 0
-723 6543 0
-724 6543 0
-725 6543 0
-728 6543 0
-730 6543 0
-733 6543 0
-734 6543 0
-736 6543 0
-738 6543 0
-6543 685 705 671 673 687 736 660 689 604 725 618 675 619 709 603 633 624 734 688 645 647 608 662 695 614 616 738 681 683 605 639 613 665 691 635 694 693 697 699 595 700 722 599 712 714 716 718 703 723 724 602 641 730 733 728 597 610 739 744 677 0
-6544 0
-1047 6545 0
-1049 6545 0
-1052 6545 0
-1054 6545 0
-1055 6545 0
-1058 6545 0
-1060 6545 0
-1064 6545 0
-1066 6545 0
-1069 6545 0
-1083 6545 0
-1089 6545 0
-1112 6545 0
-1123 6545 0
-1131 6545 0
-1133 6545 0
-1138 6545 0
-1139 6545 0
-1143 6545 0
-1144 6545 0
-1145 6545 0
-1149 6545 0
-1150 6545 0
-1159 6545 0
-1162 6545 0
-1164 6545 0
-1166 6545 0
-1172 6545 0
-1173 6545 0
-1175 6545 0
-1178 6545 0
-1188 6545 0
-1194 6545 0
-6545 1083 1066 1063 1188 1085 1189 1045 1178 1127 1052 1143 1168 1121 1055 1138 1125 1135 1149 1162 1095 1112 1064 1110 1137 1074 1115 1139 1069 1172 1194 1145 1150 1047 1141 1133 1054 1144 1147 1068 1060 1097 1155 1166 1153 1058 1089 1053 1123 1173 1174 1159 1183 1180 1131 1184 1186 1164 1175 1049 1091 0
-6546 0
-1347 6547 0
-1352 6547 0
-1353 6547 0
-1364 6547 0
-1372 6547 0
-1380 6547 0
-1384 6547 0
-1385 6547 0
-1390 6547 0
-1391 6547 0
-6547 1369 1345 1347 1363 1385 1353 1384 1374 1352 1364 1391 1365 1376 1378 1380 1390 1371 1375 1372 0
-6548 0
-6539 -6545 -6541 0
-6539 -6541 -6547 0
-6539 -6545 -6543 0
-6539 -6543 -6547 0
-6539 -6545 -6547 0
-6545 -6543 -6541 0
-6543 -6541 -6547 0
-6545 -6541 -6547 0
6541 6539 6543 6545 6540 6544 6542 6546 6548 0
6541 6547 6545 6539 6544 6540 6546 6542 6548 0
6547 6541 6545 6543 6544 6542 6546 6540 6548 0
-7 6549 0
-12 6549 0
-13 6549 0
-18 6549 0
-26 6549 0
-28 6549 0
-33 6549 0
-35 6549 0
-43 6549 0
-48 6549 0
-49 6549 0
-54 6549 0
-56 6549 0
-60 6549 0
-73 6549 0
-75 6549 0
-82 6549 0
-84 6549 0
-85 6549 0
-90 6549 0
-102 6549 0
-104 6549 0
-107 6549 0
-110 6549 0
-113 6549 0
-116 6549 0
-123 6549 0
-125 6549 0
-6549 92 56 13 33 125 54 123 116 113 35 12 7 104 82 48 28 49 110 62 84 85 102 43 26 18 60 73 75 107 90 0
-6550 0
-361 6551 0
-364 6551 0
-365 6551 0
-366 6551 0
-379 6551 0
-380 6551 0
-381 6551 0
-6551 364 361 380 381 366 360 379 365 0
-6552 0
-601 6553 0
-606 6553 0
-607 6553 0
-612 6553 0
-637 6553 0
-642 6553 0
-643 6553 0
-648 6553 0
-650 6553 0
-654 6553 0
-656 6553 0
-667 6553 0
-669 6553 0
-676 6553 0
-678 6553 0
-679 6553 0
-684 6553 0
-686 6553 0
-696 6553 0
-698 6553 0
-701 6553 0
-704 6553 0
-707 6553 0
-710 6553 0
-717 6553 0
-719 6553 0
-6553 686 601 707 704 710 684 679 667 612 650 669 676 629 637 643 622 648 620 627 696 607 698 642 656 717 678 701 654 719 606 0
-6554 0
-1056 6555 0
-1057 6555 0
-1062 6555 0
-1070 6555 0
-1077 6555 0
-1079 6555 0
-1087 6555 0
-1092 6555 0
-1093 6555 0
-1098 6555 0
-1100 6555 0
-1104 6555 0
-1106 6555 0
-1117 6555 0
-1119 6555 0
-1126 6555 0
-1128 6555 0
-1129 6555 0
-1134 6555 0
-1136 6555 0
-1146 6555 0
-1148 6555 0
-1151 6555 0
-1154 6555 0
-1157 6555 0
-1160 6555 0
-1167 6555 0
-1169 6555 0
-6555 1154 1106 1126 1119 1056 1072 1167 1157 1100 1093 1098 1136 1092 1117 1104 1169 1134 1057 1079 1077 1148 1070 1062 1129 1160 1151 1087 1146 1051 1128 0
-6556 0
-1346 6557 0
-1351 6557 0
-1379 6557 0
-1382 6557 0
-1386 6557 0
-1389 6557 0
-6557 1356 1386 1389 1379 1382 1351 1346 1357 0
-6558 0
-6549 -6551 0
-6549 -6555 0
-6549 -6557 0
-6551 -6553 0
-6551 -6555 0
-6551 -6557 0
-6555 -6553 0
-6553 -6557 0
-6555 -6557 0
6549 6553 6551 6555 6557 6554 6552 6556 6550 6558 0
-6 6559 0
-36 6559 0
-37 6559 0
-42 6559 0
-61 6559 0
-67 6559 0
-70 6559 0
-74 6559 0
-96 6559 0
-112 6559 0
-127 6559 0
6559 -133 0
-146 6559 0
-148 6559 0
-349 6561 0
-355 6561 0
-368 6561 0
-369 6561 0
-373 6561 0
6561 -374 0
-375 6561 0
-389 6561 0
6561 -393 0
-396 6561 0
-598 6563 0
-628 6563 0
-636 6563 0
6563 -644 0
-649 6563 0
-651 6563 0
-653 6563 0
-655 6563 0
-659 6563 0
-661 6563 0
6563 -670 0
-672 6563 0
-680 6563 0
-682 6563 0
-692 6563 0
-708 6563 0
6563 -721 0
6563 -726 0
-729 6563 0
-742 6563 0
-1046 6565 0
-1050 6565 0
-1059 6565 0
-1065 6565 0
6565 -1080 0
-1081 6565 0
-1086 6565 0
-1094 6565 0
-1101 6565 0
-1102 6565 0
-1108 6565 0
-1116 6565 0
-1118 6565 0
-1124 6565 0
6565 -1171 0
-1177 6565 0
-1181 6565 0
-1187 6565 0
-1190 6565 0
-1192 6565 0
-1350 6567 0
-1366 6567 0
-1367 6567 0
6567 -1368 0
6567 -1383 0
-1388 6567 0
-6567 1392 1350 1362 1373 1368 1367 1366 1381 1359 1358 1383 1387 1388 1361 1355 1370 1349 1348 1354 1360 1377 0
-6559 -6561 -6567 0
-6565 -6563 -6561 0
-6563 -6561 -6567 0
-6565 -6561 -6567 0
-6565 -6563 -6567 0
-2 6569 0
-4 6569 0
-6 6569 0
-12 6569 0
-13 6569 0
-17 6569 0
-18 6569 0
-23 6569 0
-26 6569 0
-35 6569 0
-43 6569 0
-44 6569 0
-48 6569 0
-49 6569 0
-60 6569 0
-70 6569 0
-72 6569 0
-90 6569 0
-102 6569 0
-119 6569 0
-125 6569 0
-141 6569 0
-6569 102 17 6 32 135 147 13 62 15 46 4 7 18 21 29 54 149 27 2 23 34 43 44 35 55 143 49 88 26 58 28 48 110 63 64 60 72 38 40 80 75 85 33 57 90 70 104 119 84 114 116 12 112 123 125 69 86 74 137 141 0
-6570 0
-350 6571 0
-355 6571 0
-357 6571 0
-364 6571 0
-365 6571 0
-367 6571 0
-369 6571 0
-373 6571 0
-374 6571 0
-379 6571 0
-380 6571 0
-391 6571 0
-393 6571 0
-6571 393 359 369 349 357 364 360 361 362 365 367 391 373 374 355 380 379 392 350 0
-6572 0
-598 6573 0
-600 6573 0
-601 6573 0
-606 6573 0
-612 6573 0
-623 6573 0
-626 6573 0
-628 6573 0
-642 6573 0
-643 6573 0
-651 6573 0
-656 6573 0
-664 6573 0
-666 6573 0
-669 6573 0
-679 6573 0
-684 6573 0
-696 6573 0
-698 6573 0
-704 6573 0
-706 6573 0
-710 6573 0
-713 6573 0
-729 6573 0
-6573 713 626 627 651 706 729 737 717 668 704 710 719 648 669 684 623 642 632 615 658 679 731 666 622 643 601 656 600 696 678 634 609 652 682 596 617 629 708 674 612 663 638 654 680 628 698 611 607 649 598 621 664 620 637 743 606 640 657 735 741 0
-6574 0
-1046 6575 0
-1048 6575 0
-1050 6575 0
-1057 6575 0
-1059 6575 0
-1061 6575 0
-1062 6575 0
-1070 6575 0
-1071 6575 0
-1072 6575 0
-1079 6575 0
-1082 6575 0
-1087 6575 0
-1088 6575 0
-1092 6575 0
-1093 6575 0
-1099 6575 0
-1101 6575 0
-1106 6575 0
-1107 6575 0
-1108 6575 0
-1114 6575 0
-1116 6575 0
-1119 6575 0
-1124 6575 0
-1129 6575 0
-1130 6575 0
-1181 6575 0
-6575 1193 1067 1146 1119 1065 1098 1124 1059 1051 1114 1160 1108 1071 1118 1050 1079 1090 1104 1084 1048 1061 1073 1088 1046 1101 1156 1169 1102 1070 1107 1078 1106 1087 1077 1099 1092 1128 1181 1185 1187 1179 1129 1072 1132 1116 1113 1163 1158 1130 1056 1154 1167 1057 1093 1076 1191 1148 1134 1082 1062 0
-6576 0
-1346 6577 0
-1348 6577 0
-1349 6577 0
-1350 6577 0
-1351 6577 0
-1360 6577 0
-1362 6577 0
-1366 6577 0
-1367 6577 0
-1381 6577 0
-1382 6577 0
-1383 6577 0
-1387 6577 0
-1388 6577 0
-1389 6577 0
-6577 1389 1350 1362 1366 1367 1357 1351 1383 1381 1355 1360 1382 1387 1388 1358 1348 1349 1346 1356 0
-6578 0
-6569 -6575 -6571 0
-6569 -6577 -6571 0
-6569 -6577 -6575 0
-6573 -6577 -6571 0
-6577 -6575 -6571 0
-6573 -6577 -6575 0
6569 6571 6573 6575 6570 6574 6572 6576 6578 0
6569 6577 6573 6571 6570 6574 6576 6572 6578 0
6571 6577 6569 6575 6574 6570 6576 6572 6578 0
6577 6571 6573 6575 6574 6572 6576 6570 6578 0
-1 6579 0
-6579 45 3 16 61 144 91 94 96 150 5 14 8 22 37 31 36 50 51 10 129 59 20 47 65 71 76 78 79 42 1 93 41 67 81 99 100 105 106 108 115 52 118 39 121 122 98 117 127 124 131 132 126 53 139 120 133 138 145 146 148 0
-6580 0
-363 6581 0
-368 6581 0
-371 6581 0
-375 6581 0
-383 6581 0
-394 6581 0
-396 6581 0
-6581 388 370 383 395 368 378 358 354 390 387 352 389 396 371 394 363 376 382 375 353 386 0
-6582 0
-625 6583 0
-702 6583 0
-711 6583 0
-6583 702 726 685 673 672 675 725 653 599 692 641 636 631 742 723 715 604 644 645 633 647 720 738 700 661 608 688 614 610 635 639 625 744 690 693 602 694 711 646 595 655 687 659 712 716 718 616 670 699 597 665 630 732 733 727 739 721 740 714 709 0
-6584 0
-1054 6585 0
-1058 6585 0
-1060 6585 0
-1064 6585 0
-1066 6585 0
-1083 6585 0
-1089 6585 0
-1103 6585 0
-1105 6585 0
-1111 6585 0
-1123 6585 0
-1125 6585 0
-1137 6585 0
-1138 6585 0
-1142 6585 0
-1143 6585 0
-1144 6585 0
-1149 6585 0
-1159 6585 0
-1164 6585 0
-1165 6585 0
-1166 6585 0
-1171 6585 0
-1175 6585 0
-1176 6585 0
-1188 6585 0
-6585 1081 1052 1091 1045 1123 1183 1089 1144 1135 1080 1161 1075 1188 1125 1149 1164 1137 1192 1143 1049 1054 1150 1115 1103 1168 1142 1095 1111 1122 1047 1097 1138 1109 1194 1165 1096 1159 1189 1058 1060 1170 1177 1064 1171 1083 1066 1152 1166 1175 1094 1140 1162 1190 1085 1105 1120 1176 1182 1173 1086 0
-6586 0
-1347 6587 0
-1352 6587 0
-1353 6587 0
-1359 6587 0
-1361 6587 0
-1364 6587 0
-1370 6587 0
-1377 6587 0
-1390 6587 0
-1391 6587 0
-1392 6587 0
-6587 1370 1347 1392 1352 1363 1368 1377 1345 1369 1376 1364 1391 1361 1374 1365 1359 1375 1354 1390 1353 1373 0
-6588 0
-6579 -6581 -6585 0
-6579 -6583 -6587 0
-6579 -6585 -6587 0
-6581 -6583 -6587 0
-6581 -6585 -6587 0
6581 6579 6583 6585 6580 6584 6582 6586 6588 0
6581 6587 6585 6579 6584 6580 6586 6582 6588 0
6587 6581 6585 6583 6584 6582 6586 6580 6588 0
-11 6589 0
-24 6589 0
-30 6589 0
-56 6589 0
-68 6589 0
-73 6589 0
-83 6589 0
-89 6589 0
-95 6589 0
-97 6589 0
-103 6589 0
-109 6589 0
-111 6589 0
-113 6589 0
-128 6589 0
-130 6589 0
-136 6589 0
-140 6589 0
-142 6589 0
-6589 101 56 82 128 140 73 30 24 19 25 83 109 142 136 66 9 92 11 95 103 107 77 111 113 97 68 87 134 89 130 0
-6590 0
-351 6591 0
-356 6591 0
-366 6591 0
-372 6591 0
-377 6591 0
-381 6591 0
-385 6591 0
-6591 385 377 381 366 372 351 384 356 0
-6592 0
-613 6593 0
-619 6593 0
-624 6593 0
-662 6593 0
-667 6593 0
-671 6593 0
-681 6593 0
-683 6593 0
-689 6593 0
-695 6593 0
-697 6593 0
-701 6593 0
-703 6593 0
-705 6593 0
-707 6593 0
-722 6593 0
-728 6593 0
-730 6593 0
-734 6593 0
-736 6593 0
-6593 705 671 697 707 734 736 728 703 667 624 722 650 605 681 689 662 603 618 676 613 695 660 683 701 724 619 730 691 686 677 0
-6594 0
-1053 6595 0
-1055 6595 0
-1063 6595 0
-1068 6595 0
-1069 6595 0
-1074 6595 0
-1100 6595 0
-1112 6595 0
-1117 6595 0
-1121 6595 0
-1126 6595 0
-1127 6595 0
-1133 6595 0
-1136 6595 0
-1139 6595 0
-1141 6595 0
-1147 6595 0
-1153 6595 0
-1155 6595 0
-1157 6595 0
-1172 6595 0
-1174 6595 0
-1178 6595 0
-1180 6595 0
-1184 6595 0
-1186 6595 0
-6595 1139 1100 1127 1074 1133 1110 1145 1126 1155 1063 1174 1186 1117 1136 1131 1068 1053 1112 1157 1151 1172 1069 1147 1178 1121 1055 1184 1180 1141 1153 0
-6596 0
-1378 6597 0
-1379 6597 0
-1384 6597 0
-1386 6597 0
-6597 1371 1379 1384 1378 1385 1386 1372 1380 0
-6598 0
-6589 -6591 0
-6589 -6593 0
-6589 -6595 0
-6589 -6597 0
-6591 -6593 0
-6591 -6595 0
-6591 -6597 0
-6593 -6595 0
-6597 -6595 0
6589 6591 6593 6595 6597 6594 6592 6596 6590 6598 0
-775 6599 0
-780 6599 0
-781 6599 0
-800 6599 0
-803 6599 0
-805 6599 0
-811 6599 0
-817 6599 0
-840 6599 0
-842 6599 0
-857 6599 0
-871 6599 0
-876 6599 0
-877 6599 0
-892 6599 0
-930 6601 0
-931 6601 0
-936 6601 0
-944 6601 0
-950 6601 0
-953 6601 0
-955 6601 0
-961 6601 0
-967 6601 0
-972 6601 0
-976 6601 0
-986 6601 0
-990 6601 0
-1001 6601 0
-1002 6601 0
-1007 6601 0
-1020 6601 0
-1021 6601 0
-1027 6601 0
-1040 6601 0
-1042 6601 0
-1560 6603 0
-1562 6603 0
-1575 6603 0
-1583 6603 0
-2099 6605 0
-2106 6605 0
-2108 6605 0
-2115 6605 0
-2119 6605 0
-2122 6605 0
-2125 6605 0
-2136 6605 0
-6605 2099 2115 2104 2132 2122 2136 2119 2106 2125 2108 0
-2147 6607 0
-2150 6607 0
-2152 6607 0
-2155 6607 0
-2161 6607 0
-2166 6607 0
-2168 6607 0
-2176 6607 0
-2179 6607 0
6607 -2184 0
-6599 -6603 0
-6601 -6603 0
-6601 -6607 0
-6605 -6603 0
-6603 -6607 0
6617 -2143 0
6623 -1564 0
-6623 1576 1572 1574 1546 1588 1589 1558 1564 1554 1570 1565 1559 1548 1584 1573 1547 1582 1581 1555 0
-6629 883 758 768 833 810 855 884 747 760 875 859 766 783 864 774 752 785 763 789 795 791 745 853 764 821 823 797 825 831 827 835 837 812 838 749 843 844 845 847 849 769 841 839 866 862 815 850 868 872 873 874 754 753 880 755 878 886 888 889 894 0
-6630 0
-6631 924 905 1000 914 1009 913 919 902 973 895 1044 989 908 933 903 916 993 939 941 945 910 1012 899 935 995 994 975 947 962 983 999 971 985 904 897 1034 977 991 997 1018 965 960 1005 1003 1016 981 988 987 1014 1023 1022 1025 918 1028 1033 1030 1024 1036 1038 1039 0
-6632 0
-6634 0
-6635 2124 2089 2090 2111 2131 2091 2098 2120 2134 2118 2135 2113 2096 2123 2133 2114 2112 2110 2121 0
-6636 0
-6637 2169 2142 2156 2158 2171 2175 2183 2137 2178 2157 2177 2139 2140 2170 2162 2163 2167 2164 2165 0
-6638 0
6631 6629 6635 6637 6634 6630 6636 6632 6638 0
-751 6639 0
-756 6639 0
-757 6639 0
-762 6639 0
-770 6639 0
-772 6639 0
-777 6639 0
-779 6639 0
-787 6639 0
-792 6639 0
-793 6639 0
-798 6639 0
-800 6639 0
-804 6639 0
-806 6639 0
-819 6639 0
-826 6639 0
-828 6639 0
-829 6639 0
-834 6639 0
-836 6639 0
-851 6639 0
-857 6639 0
-901 6641 0
-907 6641 0
-912 6641 0
-922 6641 0
-927 6641 0
-929 6641 0
-937 6641 0
-942 6641 0
-943 6641 0
-948 6641 0
-950 6641 0
-954 6641 0
-956 6641 0
-967 6641 0
-969 6641 0
-976 6641 0
-979 6641 0
-986 6641 0
-998 6641 0
-1001 6641 0
-1007 6641 0
-1555 6643 0
-1558 6643 0
6643 -1559 0
6643 -1560 0
6643 -1574 0
6643 -1575 0
-2092 6645 0
-2093 6645 0
-2102 6645 0
-2104 6645 0
-2127 6645 0
-2132 6645 0
-6645 2092 2128 2132 2103 2093 2102 2104 2127 0
-2138 6647 0
-2141 6647 0
-2159 6647 0
-2160 6647 0
-2161 6647 0
-2168 6647 0
-2172 6647 0
-2181 6647 0
-6647 2172 2138 2159 2168 2161 2181 2141 2160 0
-6639 -6643 0
-6639 -6645 0
-6641 -6643 0
-6641 -6645 0
-6641 -6647 0
-6645 -6643 0
-6647 -6643 0
-6647 -6645 0
6657 -2143 0
-776 6659 0
-782 6659 0
-788 6659 0
-790 6659 0
-801 6659 0
-808 6659 0
-816 6659 0
-830 6659 0
6661 -896 0
6661 -898 0
6661 -909 0
6661 -915 0
6665 -2127 0
6667 -2143 0
6667 -2148 0
-2151 6667 0
6667 -2174 0
-6659 -6665 -6661 0
-6665 -6661 -6667 0
-753 6679 0
-755 6679 0
-763 6679 0
-768 6679 0
-769 6679 0
-774 6679 0
-827 6679 0
-831 6679 0
-833 6679 0
-839 6679 0
-841 6679 0
-845 6679 0
-847 6679 0
-851 6679 0
-853 6679 0
-855 6679 0
-857 6679 0
-874 6679 0
-878 6679 0
-884 6679 0
-886 6679 0
-903 6681 0
-905 6681 0
-913 6681 0
-919 6681 0
-950 6681 0
-960 6681 0
-971 6681 0
-976 6681 0
-983 6681 0
-986 6681 0
-989 6681 0
-995 6681 0
-997 6681 0
-1001 6681 0
-1028 6681 0
-1034 6681 0
-1550 6683 0
6683 -1560 0
6683 -1575 0
-6683 1560 1545 1578 1566 1571 1550 1575 1579 0
-2096 6685 0
-2098 6685 0
-2104 6685 0
-2113 6685 0
-2114 6685 0
-2131 6685 0
-2133 6685 0
-6685 2096 2132 2104 2113 2133 2098 2114 2131 0
-2161 6687 0
-2162 6687 0
-2163 6687 0
-2167 6687 0
-2168 6687 0
-2169 6687 0
-2170 6687 0
-2171 6687 0
-6687 2163 2167 2171 2168 2169 2170 2161 2162 0
-6679 -6681 0
-6679 -6683 0
-6681 -6683 0
-6681 -6687 0
-6685 -6683 0
-6687 -6683 0
-6685 -6687 0
-32 6689 0
-35 6689 0
-38 6689 0
-41 6689 0
-49 6689 0
-51 6689 0
-57 6689 0
-58 6689 0
-60 6689 0
-66 6689 0
-74 6689 0
-75 6689 0
-77 6689 0
-81 6689 0
-91 6689 0
-97 6689 0
-99 6689 0
-106 6689 0
-109 6689 0
-112 6689 0
-116 6689 0
-122 6689 0
-125 6689 0
-128 6689 0
-131 6689 0
-134 6689 0
-137 6689 0
-145 6689 0
-147 6689 0
-365 6691 0
-369 6691 0
-372 6691 0
-390 6691 0
-393 6691 0
-6691 393 378 359 390 365 369 361 387 385 372 0
-801 6693 0
-825 6693 0
-835 6693 0
-850 6693 0
-1357 6695 0
-1362 6695 0
-1365 6695 0
-1374 6695 0
-1376 6695 0
-1380 6695 0
-1383 6695 0
-1389 6695 0
-6695 1374 1357 1389 1365 1376 1383 1355 1372 1362 1380 0
-1553 6697 0
-1555 6697 0
6697 -1559 0
6697 -1563 0
-1566 6697 0
-1572 6697 0
-1579 6697 0
6697 -1584 0
-1587 6697 0
-6697 1584 1559 1587 1581 1572 1553 1579 1555 1566 1563 0
-6689 -6691 0
-6689 -6695 0
-6689 -6697 0
-6693 -6691 0
-6691 -6695 0
-6691 -6697 0
-6695 -6697 0
-3 6699 0
-18 6699 0
-24 6699 0
-37 6699 0
-120 6699 0
-142 6699 0
-6700 0
-352 6701 0
-375 6701 0
-380 6701 0
-6701 371 352 366 360 394 396 355 354 382 357 364 358 375 395 383 356 380 370 353 0
-6702 0
-6704 0
-6705 1384 1352 1363 1375 1391 1370 1364 1353 1381 1369 1351 1361 1390 1377 1382 1386 1354 1360 1356 0
-6706 0
-1546 6707 0
-6707 1554 1550 1576 1546 1564 1551 1548 1547 1549 1569 1565 1589 1574 1560 1558 1588 1552 1590 1577 0
-6708 0
-6701 -6699 -6707 0
6701 6699 6705 6707 6704 6700 6706 6702 6708 0
-1 6709 0
-4 6709 0
-8 6709 0
-11 6709 0
-13 6709 0
-14 6709 0
-17 6709 0
-19 6709 0
-21 6709 0
-25 6709 0
-27 6709 0
-40 6709 0
-44 6709 0
-48 6709 0
-50 6709 0
-53 6709 0
-72 6709 0
-80 6709 0
-82 6709 0
-86 6709 0
-89 6709 0
-93 6709 0
-95 6709 0
-98 6709 0
-103 6709 0
-105 6709 0
-107 6709 0
-114 6709 0
-118 6709 0
-126 6709 0
-130 6709 0
-132 6709 0
-140 6709 0
-143 6709 0
-149 6709 0
-350 6711 0
-351 6711 0
-363 6711 0
-367 6711 0
-368 6711 0
6711 -374 0
6711 -381 0
-386 6711 0
6711 -389 0
6711 -392 0
-746 6713 0
-748 6713 0
-751 6713 0
-753 6713 0
-758 6713 0
-759 6713 0
-761 6713 0
-765 6713 0
-771 6713 0
-778 6713 0
-784 6713 0
-788 6713 0
-790 6713 0
-791 6713 0
-796 6713 0
-797 6713 0
-807 6713 0
-816 6713 0
-824 6713 0
-830 6713 0
-837 6713 0
-845 6713 0
-848 6713 0
-858 6713 0
-863 6713 0
-865 6713 0
-868 6713 0
-887 6713 0
-893 6713 0
6715 -1345 0
-1346 6715 0
6715 -1347 0
6715 -1350 0
6715 -1366 0
6715 -1367 0
6715 -1368 0
6715 -1379 0
6715 -1387 0
6715 -1388 0
6715 -1392 0
-6715 1359 1347 1350 1392 1368 1387 1367 1371 1378 1346 1385 1379 1358 1366 1349 1388 1348 1373 1345 0
-1545 6717 0
6717 -1557 0
-1561 6717 0
6717 -1562 0
6717 -1568 0
-1570 6717 0
-1573 6717 0
6717 -1575 0
-1582 6717 0
6717 -1585 0
-6709 -6711 -6715 0
-6709 -6711 -6717 0
-6709 -6715 -6717 0
-6711 -6715 -6717 0
-6713 -6715 -6717 0
-1 6719 0
-2 6719 0
-4 6719 0
-12 6719 0
-13 6719 0
-19 6719 0
-20 6719 0
-23 6719 0
-26 6719 0
-42 6719 0
-48 6719 0
-72 6719 0
-82 6719 0
-90 6719 0
-92 6719 0
-94 6719 0
-96 6719 0
-102 6719 0
-107 6719 0
-118 6719 0
-119 6719 0
-127 6719 0
-129 6719 0
6719 -139 0
-140 6719 0
-141 6719 0
-146 6719 0
-350 6721 0
-354 6721 0
-357 6721 0
-373 6721 0
6721 -374 0
-375 6721 0
-379 6721 0
-380 6721 0
-381 6721 0
-382 6721 0
-383 6721 0
-384 6721 0
-386 6721 0
-388 6721 0
-389 6721 0
-391 6721 0
-392 6721 0
-6721 388 374 391 392 350 383 349 379 375 357 351 373 354 389 381 380 382 384 386 0
-754 6723 0
-756 6723 0
-764 6723 0
-767 6723 0
-773 6723 0
-822 6723 0
-832 6723 0
-838 6723 0
-844 6723 0
-846 6723 0
-852 6723 0
-873 6723 0
-883 6723 0
-885 6723 0
6725 -1349 0
6725 -1350 0
6725 -1366 0
6725 -1367 0
6725 -1379 0
6725 -1381 0
6725 -1382 0
6725 -1387 0
6725 -1388 0
-1543 6727 0
-1545 6727 0
-1548 6727 0
-1551 6727 0
-1569 6727 0
-1573 6727 0
-1574 6727 0
6727 -1575 0
-1576 6727 0
-1577 6727 0
-1578 6727 0
-1582 6727 0
-1583 6727 0
6727 -1585 0
-1586 6727 0
-6727 1583 1568 1585 1544 1578 1569 1548 1575 1577 1580 1574 1551 1573 1586 1545 1582 1567 1543 1576 0
-6719 -6725 -6721 0
-6719 -6725 -6727 0
-6721 -6725 -6727 0
-6723 -6725 -6727 0
-8 6729 0
-11 6729 0
-14 6729 0
-17 6729 0
-25 6729 0
-27 6729 0
-34 6729 0
-36 6729 0
-44 6729 0
-47 6729 0
-50 6729 0
-53 6729 0
-57 6729 0
-61 6729 0
-63 6729 0
-74 6729 0
-76 6729 0
-81 6729 0
-83 6729 0
-86 6729 0
-89 6729 0
-91 6729 0
-103 6729 0
-105 6729 0
-106 6729 0
-111 6729 0
-112 6729 0
-117 6729 0
-124 6729 0
-126 6729 0
-367 6731 0
-368 6731 0
-369 6731 0
-376 6731 0
-377 6731 0
-378 6731 0
-1345 6735 0
-1348 6735 0
-1376 6735 0
-1383 6735 0
-1385 6735 0
-1392 6735 0
-6735 1383 1345 1376 1359 1392 1358 1348 1385 0
-1561 6737 0
6737 -1562 0
6737 -1563 0
-1570 6737 0
6737 -1571 0
-1572 6737 0
-6737 1557 1561 1563 1562 1571 1572 1570 1556 0
-6729 -6731 0
-6729 -6735 0
-6729 -6737 0
-6731 -6735 0
-6731 -6737 0
-6735 -6737 0
-3 6739 0
-5 6739 0
-16 6739 0
-22 6739 0
-30 6739 0
-33 6739 0
-45 6739 0
-71 6739 0
-87 6739 0
-120 6739 0
-144 6739 0
-6739 45 6 30 49 64 33 18 150 147 39 32 24 79 87 113 31 38 43 28 148 65 16 22 58 142 55 35 51 62 66 59 37 56 5 68 71 60 85 3 75 99 109 144 115 116 97 122 73 77 120 125 131 134 137 128 41 70 138 136 145 0
-6740 0
-352 6741 0
-365 6741 0
-372 6741 0
-390 6741 0
-393 6741 0
-6741 358 355 393 390 356 360 364 361 359 365 366 370 353 372 385 387 352 394 395 396 371 0
-6742 0
-6744 0
-1351 6745 0
-1352 6745 0
-1353 6745 0
-1384 6745 0
-1386 6745 0
-1391 6745 0
-6745 1356 1386 1360 1363 1361 1384 1357 1351 1355 1391 1389 1352 1364 1362 1380 1390 1365 1353 1374 1354 1372 0
-6746 0
-1546 6747 0
-1549 6747 0
-1560 6747 0
-1565 6747 0
-6747 1581 1565 1588 1550 1564 1559 1554 1547 1553 1560 1558 1546 1566 1552 1555 1584 1587 1549 1589 1590 1579 0
-6748 0
-6739 -6741 -6747 0
-6745 -6741 -6747 0
6741 6739 6745 6747 6744 6740 6746 6742 6748 0
-3 6749 0
-16 6749 0
-22 6749 0
-45 6749 0
-73 6749 0
-79 6749 0
6749 -113 0
-115 6749 0
-120 6749 0
-144 6749 0
6751 -353 0
6751 -356 0
-364 6751 0
-366 6751 0
-371 6751 0
-394 6751 0
-395 6751 0
-396 6751 0
-6751 360 352 376 371 364 370 353 355 394 396 395 377 362 356 367 366 363 358 368 0
6755 -1351 0
6755 -1352 0
6755 -1353 0
6755 -1386 0
6755 -1391 0
-1561 6757 0
6757 -1562 0
-6757 1564 1546 1562 1557 1588 1550 1589 1547 1549 1561 1560 1558 1565 1570 1571 1552 1554 1590 1556 0
-6751 -6749 -6757 0
-6751 -6755 -6757 0
-1 6759 0
-19 6759 0
-35 6759 0
-38 6759 0
-42 6759 0
-49 6759 0
-52 6759 0
-60 6759 0
-66 6759 0
-82 6759 0
-92 6759 0
-95 6759 0
-97 6759 0
-107 6759 0
-118 6759 0
-121 6759 0
-125 6759 0
-128 6759 0
-130 6759 0
-134 6759 0
-140 6759 0
-145 6759 0
-146 6759 0
-147 6759 0
-349 6761 0
-365 6761 0
6761 -381 0
6761 -388 0
-390 6761 0
-391 6761 0
6761 -392 0
-393 6761 0
-776 6763 0
-779 6763 0
-793 6763 0
-795 6763 0
-802 6763 0
-804 6763 0
-808 6763 0
-819 6763 0
-821 6763 0
-843 6763 0
-853 6763 0
-860 6763 0
-866 6763 0
-869 6763 0
-875 6763 0
-881 6763 0
6765 -1350 0
6765 -1366 0
6765 -1367 0
-1378 6765 0
6765 -1379 0
6765 -1380 0
6765 -1387 0
6765 -1388 0
-1544 6767 0
6767 -1559 0
6767 -1568 0
6767 -1575 0
-1582 6767 0
6767 -1584 0
6767 -1585 0
-1587 6767 0
-6759 -6761 -6765 0
-6759 -6761 -6767 0
-6759 -6765 -6767 0
-6761 -6765 -6767 0
-6763 -6765 -6767 0
-12 6769 0
-20 6769 0
-23 6769 0
-26 6769 0
-29 6769 0
-57 6769 0
-67 6769 0
-69 6769 0
-74 6769 0
-81 6769 0
-84 6769 0
-88 6769 0
-90 6769 0
-91 6769 0
-94 6769 0
-96 6769 0
-102 6769 0
-106 6769 0
-110 6769 0
-112 6769 0
-127 6769 0
-129 6769 0
-133 6769 0
-135 6769 0
-139 6769 0
-141 6769 0
-354 6771 0
-357 6771 0
-369 6771 0
-375 6771 0
-378 6771 0
-380 6771 0
-6771 383 375 378 354 369 357 380 382 0
-1375 6775 0
-1376 6775 0
-1377 6775 0
-1381 6775 0
-1382 6775 0
-1383 6775 0
-6775 1369 1383 1376 1377 1370 1375 1382 1381 0
-1548 6777 0
-1551 6777 0
6777 -1563 0
6777 -1569 0
-1572 6777 0
6777 -1574 0
-6777 1576 1572 1563 1574 1569 1548 1551 1577 0
-6769 -6771 0
-6769 -6777 0
-6771 -6775 0
-6771 -6777 0
-6775 -6777 0
-629 6779 0
-651 6779 0
-654 6779 0
-660 6779 0
-668 6779 0
-669 6779 0
-671 6779 0
-675 6779 0
-685 6779 0
-691 6779 0
-693 6779 0
-700 6779 0
-703 6779 0
-710 6779 0
-716 6779 0
-719 6779 0
-951 6781 0
-952 6781 0
-958 6781 0
-968 6781 0
-985 6781 0
-993 6781 0
-1000 6781 0
-1016 6781 0
-1076 6783 0
-1093 6783 0
-1095 6783 0
-1101 6783 0
-1102 6783 0
-1104 6783 0
-1108 6783 0
-1118 6783 0
-1119 6783 0
-1121 6783 0
-1125 6783 0
-1135 6783 0
-1141 6783 0
-1153 6783 0
-1160 6783 0
-1166 6783 0
-1169 6783 0
-1172 6783 0
-1178 6783 0
-1181 6783 0
-2100 6785 0
-2103 6785 0
-2107 6785 0
-2112 6785 0
-2120 6785 0
-2123 6785 0
-2124 6785 0
-2128 6785 0
-2129 6785 0
-6785 2129 2107 2124 2128 2120 2123 2100 2103 2112 0
-2148 6787 0
-2153 6787 0
6787 -2158 0
-2165 6787 0
-2169 6787 0
-2174 6787 0
6787 -2178 0
-2182 6787 0
-6779 -6783 0
-6785 -6779 0
-6779 -6787 0
-6781 -6783 0
-6785 -6783 0
-6783 -6787 0
-6785 -6787 0
-6790 0
-949 6791 0
-953 6791 0
-964 6791 0
-965 6791 0
-988 6791 0
-1009 6791 0
-1014 6791 0
-6791 1044 900 920 963 979 925 910 967 1009 931 917 1014 912 923 1038 897 922 964 933 937 939 924 904 956 959 984 906 961 950 949 981 965 972 953 978 988 994 973 918 914 962 990 996 1002 927 1004 1007 982 1021 1023 1027 1029 899 1032 1033 1035 1030 1036 1042 916 0
-6792 0
-1047 6793 0
-1060 6793 0
-1109 6793 0
-1117 6793 0
-1159 6793 0
-1164 6793 0
-6793 1164 1100 1114 1066 1112 1067 1128 1132 1122 1099 1047 1062 1159 1129 1144 1113 1083 1056 1179 1192 1185 1049 1171 1050 1157 1060 1068 1152 1074 1109 1182 1134 1140 1089 1072 1115 1064 1111 1138 1073 1146 1194 1177 1081 1123 1103 1054 1106 1087 1117 1131 1075 1186 1173 1070 1188 1183 1077 1180 1154 0
-6794 0
-6795 0
-6796 0
-2141 6797 0
-2142 6797 0
-2143 6797 0
-2144 6797 0
-2145 6797 0
-2146 6797 0
-2147 6797 0
-2156 6797 0
-2157 6797 0
-2159 6797 0
-2180 6797 0
-6797 2173 2138 2177 2154 2156 2167 2166 2149 2172 2164 2147 2175 2176 2184 2150 2170 2171 2142 2155 2157 2181 2159 2146 2168 2152 2160 2179 2144 2137 2151 2161 2139 2143 2163 2180 2141 2145 2140 2183 0
-6798 0
-6791 -6793 -6797 0
6793 6791 6797 6790 6794 6795 6796 6792 6798 0
-615 6799 0
-630 6799 0
-640 6799 0
-641 6799 0
-642 6799 0
-666 6799 0
-692 6799 0
-695 6799 0
-698 6799 0
-699 6799 0
-711 6799 0
-713 6799 0
-734 6799 0
-737 6799 0
-6799 705 674 680 697 726 605 657 708 602 642 613 689 598 712 621 743 648 695 647 676 687 611 630 596 692 640 619 608 636 601 717 670 666 603 711 655 638 628 615 698 634 720 699 644 683 595 641 737 701 713 715 718 686 646 724 607 734 609 740 677 0
-6800 0
-896 6801 0
-898 6801 0
-903 6801 0
-905 6801 0
-909 6801 0
-911 6801 0
-913 6801 0
-915 6801 0
-919 6801 0
-921 6801 0
-928 6801 0
-934 6801 0
-938 6801 0
-940 6801 0
-957 6801 0
-966 6801 0
-974 6801 0
-980 6801 0
-989 6801 0
-995 6801 0
-997 6801 0
-1005 6801 0
-1024 6801 0
-1034 6801 0
-6801 905 913 919 1012 1008 1013 992 911 966 921 986 946 896 907 898 915 1024 928 955 938 940 908 941 934 957 944 947 902 995 895 970 903 942 948 909 983 1018 989 1034 1001 930 997 976 901 1015 1005 980 1011 999 936 974 998 987 1020 977 1026 1017 1037 1040 1043 0
-6802 0
-1045 6803 0
-1046 6803 0
-1048 6803 0
-1051 6803 0
-1052 6803 0
-1053 6803 0
-1055 6803 0
-1057 6803 0
-1058 6803 0
-1059 6803 0
-1061 6803 0
-1063 6803 0
-1065 6803 0
-1069 6803 0
-1071 6803 0
-1078 6803 0
-1080 6803 0
-1084 6803 0
-1086 6803 0
-1088 6803 0
-1090 6803 0
-1091 6803 0
-1092 6803 0
-1094 6803 0
-1096 6803 0
-1097 6803 0
-1098 6803 0
-1105 6803 0
-1107 6803 0
-1116 6803 0
-1120 6803 0
-1124 6803 0
-1126 6803 0
-1127 6803 0
-1130 6803 0
-1133 6803 0
-1136 6803 0
-1137 6803 0
-1139 6803 0
-1142 6803 0
-1145 6803 0
-1147 6803 0
-1148 6803 0
-1149 6803 0
-1151 6803 0
-1155 6803 0
-1158 6803 0
-1161 6803 0
-1162 6803 0
-1163 6803 0
-1165 6803 0
-1167 6803 0
-1168 6803 0
-1170 6803 0
-1174 6803 0
-1176 6803 0
-1184 6803 0
-1187 6803 0
-1190 6803 0
-1193 6803 0
-6803 1184 1065 1168 1061 1147 1130 1059 1045 1046 1124 1163 1176 1048 1165 1116 1167 1127 1145 1053 1071 1080 1051 1098 1055 1090 1091 1149 1133 1174 1107 1105 1069 1078 1097 1058 1187 1086 1193 1084 1151 1137 1139 1120 1094 1126 1155 1092 1161 1142 1136 1088 1190 1162 1096 1052 1170 1158 1063 1057 1148 0
-6804 0
-2089 6805 0
-2090 6805 0
-2094 6805 0
-2105 6805 0
-2110 6805 0
-2127 6805 0
-6805 2095 2093 2132 2094 2101 2097 2131 2115 2122 2117 2099 2104 2102 2096 2098 2091 2116 2109 2110 2111 2126 2113 2118 2092 2134 2105 2119 2121 2089 2125 2108 2130 2106 2127 2133 2114 2135 2136 2090 0
-6806 0
-6807 0
-6808 0
-6805 -6801 -6799 0
-6805 -6801 -6803 0
6799 6801 6803 6802 6800 6804 6806 6807 6808 0
6805 6803 6799 6800 6804 6802 6806 6807 6808 0
-701 6809 0
-6809 687 729 723 737 609 682 702 694 734 704 595 727 648 733 636 692 695 701 696 708 721 603 615 676 689 614 684 661 686 713 674 607 688 663 596 646 617 604 601 613 623 698 717 620 634 715 712 606 678 640 726 690 743 598 724 666 735 642 740 672 0
-6810 0
-896 6811 0
-903 6811 0
-913 6811 0
-915 6811 0
-974 6811 0
-986 6811 0
-987 6811 0
-988 6811 0
-995 6811 0
-998 6811 0
-6811 914 995 909 1012 1008 992 904 1017 934 896 961 974 1021 920 923 903 907 1040 966 898 940 948 989 1024 906 915 1013 978 972 984 988 1001 942 987 998 946 976 917 936 901 996 1002 1004 1015 990 963 982 986 895 1023 994 913 1027 1029 1033 1026 1035 1037 1034 1043 0
-6812 0
-1116 6813 0
-1124 6813 0
-1193 6813 0
-6813 1183 1067 1146 1046 1065 1177 1045 1144 1136 1163 1092 1137 1145 1132 1151 1090 1070 1084 1138 1059 1116 1165 1056 1134 1190 1173 1174 1098 1096 1162 1140 1048 1142 1167 1171 1124 1128 1054 1064 1185 1063 1152 1126 1122 1158 1187 1073 1154 1053 1086 1148 1113 1111 1184 1179 1057 1176 1051 1139 1193 0
-6814 0
-2097 6815 0
-2116 6815 0
-2117 6815 0
-2118 6815 0
-2119 6815 0
-2121 6815 0
-2122 6815 0
-2126 6815 0
-2127 6815 0
-6815 2097 2115 2127 2130 2117 2121 2090 2122 2125 2095 2126 2116 2119 2118 2092 0
-6816 0
-2139 6817 0
-2142 6817 0
-2144 6817 0
-2145 6817 0
-2154 6817 0
-2155 6817 0
-2163 6817 0
-2166 6817 0
-2167 6817 0
-2168 6817 0
-2172 6817 0
-2177 6817 0
-2179 6817 0
-2180 6817 0
-6817 2155 2138 2172 2166 2177 2164 2161 2150 2145 2173 2181 2144 2167 2142 2141 2179 2149 2163 2160 2154 2168 2139 2180 2159 0
-6818 0
-6813 -6817 -6809 0
-6813 -6817 -6811 0
-6815 -6817 -6811 0
-6815 -6813 -6817 0
6809 6811 6813 6817 6810 6814 6816 6812 6818 0
6815 6813 6809 6817 6814 6812 6816 6810 6818 0
-602 6819 0
-608 6819 0
-619 6819 0
-621 6819 0
-630 6819 0
-641 6819 0
-655 6819 0
-657 6819 0
-668 6819 0
-670 6819 0
-677 6819 0
-680 6819 0
-683 6819 0
-685 6819 0
-699 6819 0
-705 6819 0
-706 6819 0
-711 6819 0
-718 6819 0
-720 6819 0
-6819 605 651 670 705 644 711 641 655 706 668 621 638 697 628 602 647 718 619 677 683 608 680 700 699 611 720 630 685 675 657 0
-6820 0
-905 6821 0
-911 6821 0
-919 6821 0
-921 6821 0
-951 6821 0
-957 6821 0
-977 6821 0
-980 6821 0
-985 6821 0
-999 6821 0
-1000 6821 0
-1018 6821 0
-6821 902 1000 905 911 980 921 919 985 951 1018 930 1005 908 1020 928 947 938 975 944 977 957 997 999 941 983 955 1006 970 968 1011 0
-6822 0
-1052 6823 0
-1055 6823 0
-1061 6823 0
-1069 6823 0
-1071 6823 0
-1078 6823 0
-1080 6823 0
-1088 6823 0
-1091 6823 0
-1094 6823 0
-1097 6823 0
-1101 6823 0
-1105 6823 0
-1107 6823 0
-1118 6823 0
-1120 6823 0
-1127 6823 0
-1130 6823 0
-1133 6823 0
-1135 6823 0
-1147 6823 0
-1149 6823 0
-1150 6823 0
-1155 6823 0
-1156 6823 0
-1161 6823 0
-1168 6823 0
-1170 6823 0
-6823 1150 1133 1052 1055 1168 1061 1107 1071 1088 1135 1125 1069 1161 1120 1156 1080 1130 1155 1127 1094 1105 1101 1149 1170 1147 1058 1097 1091 1078 1118 0
-6824 0
-6825 0
-6826 0
-2137 6827 0
-2140 6827 0
-2143 6827 0
-2146 6827 0
-2147 6827 0
-2148 6827 0
-2151 6827 0
-2152 6827 0
-2153 6827 0
-2156 6827 0
-2157 6827 0
-2158 6827 0
-2162 6827 0
-2165 6827 0
-2169 6827 0
-2170 6827 0
-2171 6827 0
-2174 6827 0
-2175 6827 0
-2176 6827 0
-2178 6827 0
-2182 6827 0
-2183 6827 0
-2184 6827 0
-6827 2158 2140 2162 2175 2151 2178 2137 2184 2169 2174 2182 2147 2143 2156 2176 2148 2157 2171 2183 2146 2170 2152 2165 2153 0
-6828 0
-6821 -6819 0
-6823 -6819 0
-6819 -6827 0
-6821 -6823 0
-6821 -6827 0
-6823 -6827 0
6821 6819 6823 6827 6820 6824 6825 6826 6822 6828 0
6829 -681 0
-1075 6833 0
-1077 6833 0
6833 -1081 0
6833 -1083 0
6833 -1087 0
6833 -1089 0
6833 -1102 0
6833 -1104 0
6833 -1108 0
6833 -1119 0
6833 -1121 0
6833 -1159 0
6833 -1164 0
6835 -2113 0
-6835 -6829 -6833 0
-6839 705 667 699 618 736 602 630 709 633 631 638 621 611 732 605 616 599 657 628 612 707 650 649 738 641 597 720 742 647 624 679 656 664 653 662 600 610 619 659 637 681 673 680 683 697 714 718 670 639 627 655 622 665 730 625 644 711 608 744 677 0
-6840 0
-6841 900 965 911 918 902 1038 1009 921 956 897 910 949 912 922 928 925 908 919 930 931 933 927 938 937 939 905 924 941 979 997 944 962 899 1005 980 981 953 967 955 1018 947 999 977 973 983 950 957 1044 1007 970 1014 1011 959 964 1020 1032 1030 1036 1042 916 0
-6842 0
-6843 1129 1047 1089 1049 1091 1127 1117 1052 1114 1066 1103 1072 1133 1161 1069 1109 1071 1192 1099 1060 1155 1068 1157 1074 1100 1168 1112 1164 1105 1078 1077 1083 1130 1182 1062 1055 1159 1120 1094 1088 1107 1097 1131 1123 1147 1188 1050 1061 1106 1149 1080 1115 1170 1180 1194 1186 1081 1058 1087 1075 0
-6844 0
-6845 2133 2101 2132 2094 2098 2110 2135 2093 2104 2091 2131 2096 2089 2099 2106 2109 2108 2114 2113 2111 2136 2134 2105 2102 0
-6846 0
-2140 6847 0
-2147 6847 0
-6847 2151 2137 2176 2156 2147 2140 2184 2171 2146 2183 2157 2152 2175 2170 2143 0
-6848 0
6839 6841 6843 6845 6840 6844 6842 6846 6848 0
6839 6845 6847 6841 6844 6840 6846 6842 6848 0
6839 6845 6847 6843 6844 6842 6846 6840 6848 0
6841 6845 6847 6843 6844 6842 6846 6840 6848 0
-6850 0
-901 6851 0
-958 6851 0
-966 6851 0
-969 6851 0
-974 6851 0
-987 6851 0
-989 6851 0
-992 6851 0
-993 6851 0
-998 6851 0
-1001 6851 0
-1008 6851 0
-1012 6851 0
-1013 6851 0
-6851 954 1008 1012 946 907 929 895 934 966 926 896 932 1010 903 898 940 942 943 1024 1003 915 995 987 948 960 909 969 971 958 913 936 945 1013 991 1001 998 935 993 952 901 989 976 1017 974 986 1016 1015 1019 1040 1022 1025 992 1026 1031 1028 1037 1034 1039 1041 1043 0
-6852 0
-1046 6853 0
-1048 6853 0
-1093 6853 0
-1116 6853 0
-1124 6853 0
-1166 6853 0
-1187 6853 0
-1193 6853 0
-6853 1082 1059 1166 1065 1119 1085 1108 1193 1143 1124 1093 1163 1137 1176 1086 1053 1051 1169 1095 1045 1098 1092 1096 1102 1139 1151 1084 1104 1063 1057 1121 1145 1141 1165 1046 1048 1116 1079 1153 1187 1136 1142 1126 1189 1160 1148 1162 1167 1174 1158 1175 1090 1181 1184 1110 1172 1190 1191 1076 1178 0
-6854 0
-6855 0
-6856 0
-2141 6857 0
-2154 6857 0
-2162 6857 0
-2165 6857 0
-2168 6857 0
-2169 6857 0
-2172 6857 0
-2173 6857 0
-2174 6857 0
-2177 6857 0
-2178 6857 0
-2180 6857 0
-6857 2172 2145 2149 2153 2168 2148 2158 2169 2174 2178 2164 2182 2159 2161 2177 2173 2144 2150 2142 2163 2166 2139 2154 2155 2167 2162 2138 2179 2160 2180 2141 2181 2165 0
-6858 0
-6853 -6857 -6851 0
6851 6853 6857 6850 6854 6855 6856 6852 6858 0
-604 6859 0
-606 6859 0
-617 6859 0
-661 6859 0
-668 6859 0
-678 6859 0
-690 6859 0
-694 6859 0
-700 6859 0
-702 6859 0
6859 -704 0
-706 6859 0
-727 6859 0
-729 6859 0
-733 6859 0
-6859 685 729 682 700 735 663 678 721 617 623 706 704 614 702 651 688 668 723 672 620 661 606 690 684 604 727 675 696 733 694 0
-904 6861 0
-906 6861 0
-914 6861 0
-917 6861 0
-920 6861 0
-923 6861 0
-951 6861 0
-961 6861 0
-963 6861 0
-968 6861 0
-972 6861 0
-975 6861 0
-978 6861 0
-982 6861 0
-984 6861 0
-985 6861 0
-988 6861 0
-990 6861 0
-994 6861 0
-996 6861 0
-1000 6861 0
-1002 6861 0
-1004 6861 0
-1006 6861 0
-1021 6861 0
-1023 6861 0
-1027 6861 0
-1029 6861 0
-1033 6861 0
-1035 6861 0
-1054 6863 0
-1056 6863 0
-1064 6863 0
6863 -1067 0
-1070 6863 0
-1073 6863 0
-1101 6863 0
-1111 6863 0
-1113 6863 0
6863 -1118 0
-1122 6863 0
-1125 6863 0
-1128 6863 0
-1132 6863 0
6863 -1134 0
-1135 6863 0
-1138 6863 0
-1140 6863 0
-1144 6863 0
-1146 6863 0
-1150 6863 0
-1152 6863 0
-1154 6863 0
-1156 6863 0
-1171 6863 0
-1173 6863 0
-1177 6863 0
-1179 6863 0
-1183 6863 0
-1185 6863 0
-6863 1140 1118 1054 1067 1134 1113 1101 1156 1073 1135 1144 1152 1177 1056 1154 1146 1171 1179 1064 1125 1138 1128 1111 1150 1132 1185 1183 1173 1122 1070 0
-2090 6865 0
-2092 6865 0
-2095 6865 0
-2097 6865 0
-2100 6865 0
-2103 6865 0
-2107 6865 0
-2112 6865 0
-2115 6865 0
-2116 6865 0
-2117 6865 0
-2118 6865 0
-2119 6865 0
-2120 6865 0
-2121 6865 0
-2122 6865 0
-2123 6865 0
-2124 6865 0
-2125 6865 0
-2126 6865 0
-2127 6865 0
-2128 6865 0
-2129 6865 0
-2130 6865 0
-6865 2130 2095 2115 2117 2103 2090 2120 2122 2107 2116 2125 2119 2097 2100 2118 2127 2123 2112 2092 2121 2124 2129 2128 2126 0
-6863 -6859 0
-6865 -6859 0
-6861 -6863 0
-6861 -6865 0
-6865 -6863 0
-166 6869 0
-169 6869 0
-174 6869 0
-177 6869 0
-180 6869 0
-187 6869 0
-190 6869 0
-193 6869 0
-195 6869 0
-6869 187 193 169 166 180 195 182 174 190 177 0
-439 6871 0
-440 6871 0
-443 6871 0
-444 6871 0
-466 6871 0
-467 6871 0
-468 6871 0
-481 6871 0
-482 6871 0
-483 6871 0
-484 6871 0
-485 6871 0
-486 6871 0
6871 -496 0
-497 6871 0
-498 6871 0
-499 6871 0
-500 6871 0
6871 -501 0
6871 -514 0
-515 6871 0
6871 -516 0
-535 6871 0
-536 6871 0
-537 6871 0
-538 6871 0
-539 6871 0
-540 6871 0
-6871 496 466 441 485 514 483 516 540 499 501 498 500 535 538 481 439 497 536 467 537 515 444 442 486 468 443 539 482 440 484 0
-1435 6875 0
-1436 6875 0
-1437 6875 0
-1438 6875 0
-1439 6875 0
-1440 6875 0
-1462 6875 0
-1463 6875 0
-1478 6875 0
-1480 6875 0
-1481 6875 0
-1482 6875 0
-1492 6875 0
-1494 6875 0
-1495 6875 0
-1497 6875 0
-1510 6875 0
-1511 6875 0
-1512 6875 0
-1531 6875 0
-1532 6875 0
-1533 6875 0
-1534 6875 0
-1536 6875 0
-6875 1463 1493 1511 1535 1510 1436 1536 1464 1497 1440 1481 1495 1437 1492 1482 1438 1496 1480 1533 1512 1435 1462 1439 1531 1478 1532 1479 1534 1494 1477 0
-1660 6877 0
-1662 6877 0
-1676 6877 0
-1677 6877 0
-1679 6877 0
-1690 6877 0
-1692 6877 0
-1708 6877 0
-1709 6877 0
-1710 6877 0
-6877 1710 1677 1633 1680 1691 1636 1734 1676 1661 1690 1695 1675 1660 1709 1733 1694 1708 1662 1693 1679 1732 1638 1692 1678 1729 1637 1730 1731 1634 1635 0
-6869 -6871 0
-6869 -6877 0
-6875 -6871 0
-6877 -6871 0
-6875 -6877 0
-179 6879 0
-6879 178 151 184 176 179 185 186 198 160 163 181 183 155 156 153 154 175 152 197 0
-6880 0
-397 6881 0
-398 6881 0
-399 6881 0
-6881 522 412 469 478 544 471 518 413 447 410 399 472 455 397 528 445 409 411 489 474 543 480 545 477 403 446 454 448 459 517 398 542 449 470 476 479 456 405 475 473 527 406 523 458 457 520 450 546 404 487 488 521 525 526 407 408 541 414 519 524 0
-6882 0
-6883 1204 1268 1273 1210 1321 1197 1253 1271 1208 1201 1276 1287 1286 1343 1202 1203 1244 1257 1211 1245 1248 1252 1246 1247 1255 1207 1209 1205 1212 1196 1270 1256 1272 1243 1274 1267 1254 1277 1278 1195 1285 1275 1315 1316 1317 1318 1319 1320 1269 1322 1323 1324 1325 1326 1339 1340 1341 1342 1206 1344 0
-6884 0
-1537 6885 0
-1538 6885 0
-1539 6885 0
-1540 6885 0
-1541 6885 0
-1542 6885 0
-6885 1393 1524 1395 1450 1470 1537 1455 1540 1394 1471 1541 1483 1405 1516 1399 1521 1403 1542 1409 1523 1452 1406 1446 1514 1518 1515 1407 1475 1485 1443 1472 1465 1454 1444 1474 1404 1513 1441 1408 1469 1468 1476 1402 1401 1522 1484 1520 1451 1453 1473 1467 1410 1519 1466 1442 1538 1517 1539 1445 1400 0
-6886 0
-1591 6887 0
-6887 1667 1591 1602 1649 1668 1711 1642 1603 1664 1670 1669 1671 1666 1663 1651 1592 1608 1712 1721 1601 1599 1722 1607 1604 1715 1672 1648 1717 1593 1682 1735 1681 1652 1606 1641 1740 1605 1673 1674 1598 1653 1720 1683 1665 1597 1714 1718 1716 1644 1643 1650 1719 1737 1600 1639 1736 1640 1738 1739 1713 0
-6888 0
6879 6881 6885 6887 6884 6880 6886 6882 6888 0
6883 6879 6885 6887 6884 6882 6886 6880 6888 0
6897 -1697 0
-429 6901 0
-541 6901 0
6901 -542 0
6901 -543 0
-544 6901 0
-545 6901 0
6901 -546 0
-6901 502 452 509 518 522 400 402 529 542 421 505 507 432 545 541 455 409 411 506 426 457 428 410 451 544 454 429 430 422 456 423 414 531 425 413 504 511 459 412 510 431 508 512 503 513 453 517 533 521 530 427 401 520 519 532 458 546 424 543 534 0
-1537 6905 0
-1538 6905 0
-1539 6905 0
-1540 6905 0
-1541 6905 0
-1542 6905 0
-6905 1422 1455 1398 1506 1447 1449 1397 1509 1426 1516 1517 1423 1518 1410 1421 1448 1425 1450 1539 1424 1407 1420 1451 1537 1500 1501 1505 1406 1503 1499 1396 1507 1502 1529 1513 1514 1408 1419 1542 1528 1527 1530 1508 1452 1405 1515 1526 1504 1525 1498 1454 1417 1418 1541 1427 1538 1453 1540 1428 1409 0
6909 -166 0
-167 6909 0
-168 6909 0
6909 -169 0
-170 6909 0
-171 6909 0
-172 6909 0
-173 6909 0
-6909 171 166 167 169 173 172 168 170 0
-415 6911 0
-416 6911 0
-417 6911 0
-418 6911 0
-419 6911 0
-420 6911 0
-433 6911 0
-434 6911 0
-435 6911 0
-436 6911 0
6911 -437 0
-438 6911 0
-460 6911 0
-461 6911 0
-462 6911 0
-463 6911 0
-464 6911 0
-465 6911 0
-466 6911 0
-467 6911 0
-468 6911 0
6911 -490 0
-491 6911 0
-492 6911 0
-493 6911 0
-494 6911 0
6911 -495 0
6911 -514 0
-6911 435 417 495 464 490 514 460 461 434 468 419 436 516 462 466 491 515 420 467 493 415 433 438 437 492 416 465 494 418 463 0
-1411 6915 0
-1412 6915 0
-1413 6915 0
-1414 6915 0
-1415 6915 0
-1416 6915 0
-1429 6915 0
-1430 6915 0
-1431 6915 0
-1432 6915 0
-1433 6915 0
-1434 6915 0
-1456 6915 0
-1457 6915 0
-1458 6915 0
-1459 6915 0
-1460 6915 0
-1461 6915 0
-1462 6915 0
-1463 6915 0
-1486 6915 0
-1487 6915 0
-1488 6915 0
-1489 6915 0
-1490 6915 0
-1491 6915 0
-1510 6915 0
-1511 6915 0
-6915 1434 1489 1433 1463 1461 1414 1457 1456 1510 1430 1462 1412 1511 1459 1458 1411 1491 1413 1416 1432 1487 1415 1486 1512 1490 1460 1488 1429 1431 1464 0
-1609 6917 0
-1611 6917 0
-1612 6917 0
-1614 6917 0
-1627 6917 0
-1628 6917 0
-1629 6917 0
-1631 6917 0
-1654 6917 0
-1655 6917 0
-1657 6917 0
-1658 6917 0
6917 -1660 0
-1661 6917 0
-1662 6917 0
-1684 6917 0
-1686 6917 0
-1687 6917 0
6917 -1689 0
6917 -1708 0
-1709 6917 0
-1710 6917 0
-6917 1627 1610 1661 1688 1687 1659 1657 1629 1612 1686 1655 1660 1628 1685 1609 1658 1611 1708 1662 1654 1684 1613 1614 1709 1656 1710 1630 1689 1631 1632 0
-6909 -6917 0
-6917 -6911 0
-6915 -6917 0
6919 -155 0
-6919 179 153 185 175 178 186 177 193 190 181 195 183 152 180 184 176 187 174 155 182 156 0
-6927 1668 1591 1722 1667 1670 1634 1680 1671 1602 1692 1664 1593 1717 1673 1732 1721 1677 1734 1666 1592 1663 1690 1601 1638 1679 1730 1599 1691 1683 1694 1639 1675 1672 1676 1640 1600 1669 1644 1598 1674 1718 1637 1695 1636 1635 1678 1642 1729 1720 1682 1641 1665 1643 1633 1719 1693 1733 1681 1597 1731 0
6937 -1681 0
6937 -1719 0
-6937 1688 1643 1670 1667 1666 1668 1656 1602 1687 1682 1664 1659 1631 1689 1591 1630 1657 1681 1597 1721 1685 1674 1601 1683 1592 1663 1671 1627 1598 1632 1717 1669 1593 1658 1642 1686 1640 1613 1654 1722 1641 1684 1611 1673 1600 1609 1672 1612 1610 1629 1614 1720 1644 1599 1655 1628 1718 1639 1719 1665 0
-187 6939 0
-190 6939 0
-6939 196 159 158 187 192 177 188 194 157 180 164 189 165 190 162 161 182 174 195 191 193 0
-6940 0
-452 6941 0
-453 6941 0
-6941 509 453 496 502 443 452 485 444 421 534 508 538 430 486 503 439 400 504 431 536 540 423 428 426 483 511 451 442 422 432 484 499 505 497 535 501 429 513 482 481 500 512 402 440 506 510 427 441 401 507 498 531 425 532 530 529 537 424 533 539 0
-6942 0
-6944 0
-1421 6945 0
-1422 6945 0
-1423 6945 0
-1424 6945 0
-1425 6945 0
-1426 6945 0
-1436 6945 0
-1437 6945 0
-1438 6945 0
-1447 6945 0
-1448 6945 0
-1449 6945 0
-1477 6945 0
-1478 6945 0
-6945 1396 1480 1397 1527 1437 1504 1500 1503 1438 1479 1535 1425 1506 1418 1448 1482 1492 1502 1428 1427 1495 1505 1536 1533 1398 1528 1509 1525 1508 1529 1493 1424 1507 1478 1496 1423 1498 1426 1534 1530 1494 1447 1439 1449 1436 1440 1422 1420 1497 1526 1477 1417 1435 1499 1421 1532 1501 1531 1481 1419 0
-6946 0
-1622 6947 0
-1696 6947 0
-1697 6947 0
-6947 1697 1594 1637 1706 1645 1699 1705 1691 1680 1636 1692 1646 1626 1618 1702 1619 1690 1622 1696 1596 1675 1701 1703 1677 1621 1638 1620 1625 1616 1679 1617 1676 1634 1595 1734 1623 1723 1724 1700 1726 1647 1704 1729 1624 1730 1693 1732 1707 1695 1694 1678 1727 1725 1615 1635 1698 1733 1731 1728 1633 0
-6948 0
-6947 -6941 -6939 0
6941 6939 6945 6947 6944 6940 6946 6942 6948 0
6949 -151 0
-154 6949 0
-160 6949 0
-163 6949 0
-197 6949 0
-198 6949 0
-6949 166 151 198 154 197 169 163 160 0
-409 6951 0
-410 6951 0
-411 6951 0
-412 6951 0
-413 6951 0
-414 6951 0
-454 6951 0
-455 6951 0
-456 6951 0
-457 6951 0
-458 6951 0
-459 6951 0
-468 6951 0
-517 6951 0
6951 -518 0
-519 6951 0
-520 6951 0
-521 6951 0
-522 6951 0
-541 6951 0
-542 6951 0
-543 6951 0
-544 6951 0
-545 6951 0
-546 6951 0
-6951 514 467 542 521 544 468 518 458 456 410 409 411 522 516 412 454 543 457 455 414 466 546 517 519 515 413 541 459 520 545 0
-1406 6955 0
-1407 6955 0
-1408 6955 0
-1409 6955 0
-1410 6955 0
6955 -1450 0
-1451 6955 0
-1452 6955 0
-1453 6955 0
-1454 6955 0
-1455 6955 0
-1462 6955 0
-1463 6955 0
-1510 6955 0
-1511 6955 0
-1514 6955 0
-1516 6955 0
-1517 6955 0
-1518 6955 0
-1537 6955 0
-1538 6955 0
-1539 6955 0
-1540 6955 0
-1541 6955 0
-1542 6955 0
-6955 1454 1514 1463 1406 1537 1405 1541 1518 1517 1408 1512 1464 1407 1515 1451 1542 1516 1453 1450 1455 1511 1513 1538 1462 1410 1409 1539 1540 1510 1452 0
-1608 6957 0
-1648 6957 0
-1650 6957 0
-1651 6957 0
-1653 6957 0
6957 -1660 0
6957 -1662 0
6957 -1708 0
-1709 6957 0
-1710 6957 0
-1711 6957 0
-1712 6957 0
-1713 6957 0
-6957 1713 1604 1652 1716 1607 1740 1648 1608 1662 1603 1711 1649 1650 1708 1605 1653 1651 1714 1712 1710 1709 1660 1661 1735 1736 1737 1715 1738 1739 1606 0
-6951 -6949 0
-6949 -6957 0
-6951 -6957 0
-6955 -6957 0
-241 6959 0
-242 6959 0
-243 6959 0
-244 6959 0
-245 6959 0
-268 6959 0
-269 6959 0
-270 6959 0
-283 6959 0
-284 6959 0
-285 6959 0
-286 6959 0
-287 6959 0
-299 6959 0
-301 6959 0
-302 6959 0
-316 6959 0
-317 6959 0
-337 6959 0
-338 6959 0
-339 6959 0
-341 6959 0
-342 6959 0
-6959 288 244 246 299 318 298 316 287 283 241 269 270 302 339 341 268 243 286 301 342 303 245 317 285 337 242 338 284 340 300 0
-6960 0
-564 6961 0
-567 6961 0
-572 6961 0
-575 6961 0
-582 6961 0
-586 6961 0
-587 6961 0
-591 6961 0
-592 6961 0
-6961 567 592 586 591 572 564 587 582 575 0
-6962 0
-1759 6963 0
-1762 6963 0
-1771 6963 0
-1774 6963 0
-1777 6963 0
-1783 6963 0
-1786 6963 0
-6963 1786 1756 1783 1759 1780 1771 1774 1777 1762 0
-6964 0
-1831 6965 0
-1832 6965 0
-1833 6965 0
-1834 6965 0
-1835 6965 0
-1836 6965 0
-1858 6965 0
-1859 6965 0
-1860 6965 0
-1873 6965 0
-1874 6965 0
-1875 6965 0
-1876 6965 0
-1877 6965 0
-1878 6965 0
-1888 6965 0
-1889 6965 0
-1890 6965 0
-1891 6965 0
-1892 6965 0
-1893 6965 0
-1906 6965 0
-1907 6965 0
-1908 6965 0
-1927 6965 0
-1928 6965 0
-1929 6965 0
-1930 6965 0
-1931 6965 0
-1932 6965 0
-6965 1892 1876 1888 1834 1907 1832 1889 1891 1875 1835 1874 1927 1877 1831 1833 1878 1928 1873 1893 1929 1908 1860 1859 1906 1930 1890 1932 1931 1836 1858 0
-6966 0
-2008 6967 0
-2027 6967 0
-2038 6967 0
-2039 6967 0
-2041 6967 0
-2042 6967 0
-2043 6967 0
-2078 6967 0
-2079 6967 0
-2080 6967 0
-2081 6967 0
-2082 6967 0
-6967 2028 2008 2038 2043 1984 2078 2077 2056 2080 1982 1986 2058 2079 2024 2010 1981 2057 1983 2082 2039 2042 1985 2026 2027 2081 2009 2040 2025 2041 2023 0
-6968 0
-6959 -6961 0
-6959 -6963 0
-6959 -6965 0
-6961 -6963 0
-6961 -6965 0
-6961 -6967 0
-6965 -6963 0
-6965 -6967 0
6961 6959 6963 6965 6967 6964 6962 6966 6960 6968 0
-6969 200 329 215 271 277 330 325 328 273 199 272 260 257 205 259 348 274 276 278 251 252 212 290 256 214 250 209 258 280 261 275 291 216 282 201 210 281 213 247 207 249 319 320 206 322 323 321 324 248 327 279 211 208 347 289 345 343 344 346 326 0
-6970 0
-6971 0
-6972 0
-1741 6973 0
-1742 6973 0
-1743 6973 0
-1744 6973 0
-1745 6973 0
-1747 6973 0
-1748 6973 0
-1749 6973 0
-1757 6973 0
-1758 6973 0
-1760 6973 0
-1761 6973 0
-1763 6973 0
-1784 6973 0
-6973 1758 1748 1772 1787 1765 1750 1763 1784 1746 1742 1779 1778 1761 1747 1764 1743 1744 1781 1773 1745 1776 1741 1782 1757 1785 1760 1788 1749 1751 1752 1753 1754 1755 1775 1766 1767 1768 1769 1770 0
-6974 0
-1879 6975 0
-1880 6975 0
-1881 6975 0
-6975 1914 1789 1879 1803 1881 1839 1862 1933 1840 1880 1938 1842 1909 1841 1847 1917 1837 1934 1838 1935 1912 1848 1800 1936 1799 1850 1849 1795 1797 1861 1864 1863 1846 1796 1868 1867 1870 1869 1872 1804 1805 1806 1866 1851 1798 1801 1871 1802 1790 1937 1920 1791 1865 1911 1910 1915 1918 1916 1913 1919 0
-6976 0
-1939 6977 0
-1940 6977 0
-1941 6977 0
-1945 6977 0
-1946 6977 0
-1947 6977 0
-1948 6977 0
-1949 6977 0
-1950 6977 0
-1951 6977 0
-1952 6977 0
-1953 6977 0
-1954 6977 0
-1955 6977 0
-1956 6977 0
-1987 6977 0
-1988 6977 0
-1989 6977 0
-1990 6977 0
-1991 6977 0
-1992 6977 0
-1996 6977 0
-1997 6977 0
-1998 6977 0
-1999 6977 0
-2000 6977 0
-2001 6977 0
-2011 6977 0
-2012 6977 0
-2013 6977 0
-2014 6977 0
-2015 6977 0
-2016 6977 0
-2017 6977 0
-2018 6977 0
-2019 6977 0
-2020 6977 0
-2021 6977 0
-2022 6977 0
-2029 6977 0
-2030 6977 0
-2031 6977 0
-2059 6977 0
-2060 6977 0
-2061 6977 0
-2062 6977 0
-2063 6977 0
-2064 6977 0
-2065 6977 0
-2066 6977 0
-2069 6977 0
-2070 6977 0
-2083 6977 0
2001 -6977 2029 2083 1950 2030 2069 2063 2086 2070 1988 2088 2011 1939 2060 1949 2019 2087 1940 1953 1951 1998 2065 2031 2061 2022 1955 2017 2062 2068 2013 1946 1952 1999 2014 1947 2016 2018 1954 2084 2059 1990 2021 2085 2015 1945 2064 2066 1991 1948 1941 1996 1997 2067 1956 2012 1992 1989 1987 2000 2020 0
-6978 0
-6977 -6975 -6973 0
6969 6973 6975 6972 6970 6974 6971 6976 6978 0
6977 6969 6975 6972 6974 6970 6976 6971 6978 0
-202 6979 0
-204 6979 0
-217 6979 0
-225 6979 0
-228 6979 0
-255 6979 0
-267 6979 0
-296 6979 0
-304 6979 0
-305 6979 0
-310 6979 0
-335 6979 0
-6979 254 218 310 312 204 237 292 293 230 221 294 313 228 223 336 232 203 305 296 234 332 217 240 236 233 222 225 229 226 239 263 297 265 219 308 262 224 264 295 266 235 306 202 304 307 253 231 255 334 331 227 220 314 309 333 311 267 335 315 238 0
-6980 0
6981 -547 0
6981 -548 0
6981 -550 0
-552 6981 0
-553 6981 0
-555 6981 0
-565 6981 0
-566 6981 0
-573 6981 0
-574 6981 0
-576 6981 0
-578 6981 0
6981 -579 0
-581 6981 0
-584 6981 0
6981 -585 0
6981 -588 0
-6982 0
-6983 0
-6984 0
-1843 6985 0
-1844 6985 0
-1845 6985 0
-6985 1903 1792 1825 1827 1793 1816 1808 1820 1882 1829 1794 1815 1813 1810 1818 1852 1811 1826 1845 1823 1812 1822 1886 1844 1894 1828 1830 1819 1821 1817 1853 1854 1855 1856 1857 1809 1883 1884 1885 1807 1887 1814 1895 1896 1897 1898 1899 1900 1901 1902 1843 1904 1905 1921 1922 1923 1924 1925 1926 1824 0
-6986 0
-1957 6987 0
-1958 6987 0
-1959 6987 0
-1961 6987 0
-1975 6987 0
-1976 6987 0
-1978 6987 0
-1980 6987 0
-2002 6987 0
-2003 6987 0
-2004 6987 0
-2005 6987 0
-2006 6987 0
-2007 6987 0
-2032 6987 0
-2033 6987 0
-2034 6987 0
-2036 6987 0
-2044 6987 0
-2045 6987 0
-2046 6987 0
-2047 6987 0
-2048 6987 0
-2049 6987 0
-2052 6987 0
-2053 6987 0
-2054 6987 0
-2055 6987 0
-2074 6987 0
-6987 1944 1980 2037 2051 2072 1974 1993 1995 2052 1967 1963 2076 1960 1975 1966 1959 1965 1957 2002 1942 2006 1973 2074 1977 2055 2032 1979 2045 2046 1958 1961 2004 2005 1978 1970 2049 1972 2035 2007 2053 2047 2054 1976 2048 1971 1964 1968 2073 1969 1962 2044 2071 2003 2075 2034 2050 1994 2036 1943 2033 0
-6988 0
-6979 -6985 -6981 0
-6987 -6979 -6985 0
-6987 -6985 -6981 0
6979 6985 6987 6983 6984 6980 6986 6982 6988 0
-225 6989 0
-255 6989 0
-305 6989 0
-310 6989 0
-335 6989 0
-6989 228 312 213 254 225 346 335 310 226 229 260 306 257 230 216 334 253 304 255 322 307 204 305 215 259 258 234 256 332 224 227 344 232 223 214 311 308 313 233 315 319 348 203 320 323 324 331 212 333 309 231 336 343 261 347 202 321 345 211 314 0
-6990 0
-550 6991 0
-551 6991 0
-555 6991 0
-556 6991 0
-557 6991 0
-558 6991 0
-559 6991 0
-583 6991 0
-584 6991 0
-585 6991 0
-588 6991 0
-589 6991 0
-590 6991 0
-593 6991 0
-594 6991 0
-6991 558 589 584 590 583 551 593 550 588 585 555 556 594 559 557 0
-6992 0
-1741 6993 0
-1742 6993 0
-1744 6993 0
-1745 6993 0
-1747 6993 0
-1748 6993 0
-1772 6993 0
-1773 6993 0
-1775 6993 0
-1778 6993 0
-1779 6993 0
-1781 6993 0
-1782 6993 0
-1784 6993 0
-1785 6993 0
-1787 6993 0
-1788 6993 0
-6993 1775 1744 1772 1754 1785 1773 1787 1782 1778 1750 1784 1747 1742 1748 1745 1741 1788 1781 1751 1776 1753 1752 1779 1755 0
-6994 0
-1843 6995 0
-1844 6995 0
-1845 6995 0
-6995 1894 1802 1851 1902 1903 1911 1844 1909 1846 1933 1910 1845 1792 1822 1820 1793 1816 1913 1805 1823 1821 1813 1814 1806 1847 1848 1849 1818 1817 1803 1905 1896 1897 1898 1899 1850 1901 1819 1843 1904 1900 1895 1815 1912 1804 1914 1794 1921 1922 1923 1924 1925 1926 1824 1934 1935 1936 1937 1938 1801 0
-6996 0
-1942 6997 0
-1943 6997 0
-1944 6997 0
-1953 6997 0
-1954 6997 0
-1955 6997 0
-1963 6997 0
-1964 6997 0
-1965 6997 0
-1966 6997 0
-1967 6997 0
-1968 6997 0
-1969 6997 0
-1970 6997 0
-1971 6997 0
-1972 6997 0
-1973 6997 0
-1974 6997 0
-1993 6997 0
-1994 6997 0
-1995 6997 0
-1996 6997 0
-1997 6997 0
-1998 6997 0
-1999 6997 0
-2000 6997 0
-2001 6997 0
-2044 6997 0
-2045 6997 0
-2046 6997 0
-2048 6997 0
-2051 6997 0
-2055 6997 0
-2060 6997 0
-2071 6997 0
-2072 6997 0
-2076 6997 0
-2083 6997 0
-2085 6997 0
-2087 6997 0
-2088 6997 0
2073 -6997 1999 2088 1955 1974 2051 1943 2060 2050 2076 1942 2048 2064 2054 1993 2086 2052 1969 2062 1998 1971 2083 2072 1956 1951 1964 2053 2075 1994 1967 1944 2087 2046 2047 1995 2000 2074 2059 1952 2071 2084 1996 1997 2085 2063 2044 1970 1968 1963 1953 1973 2049 2001 1965 2061 2045 2055 1954 1966 1972 0
-6998 0
-6989 -6995 -6993 0
-6989 -6997 -6995 0
-6995 -6993 -6991 0
-6997 -6993 -6991 0
-6997 -6995 -6991 0
-6997 -6995 -6993 0
6991 6989 6993 6995 6990 6994 6992 6996 6998 0
6997 6991 6995 6993 6994 6992 6996 6990 6998 0
-217 6999 0
-219 6999 0
-221 6999 0
-238 6999 0
-240 6999 0
-262 6999 0
-263 6999 0
-266 6999 0
-267 6999 0
-269 6999 0
-270 6999 0
-293 6999 0
-296 6999 0
-316 6999 0
-317 6999 0
-6999 236 218 220 263 292 237 293 266 269 239 297 294 267 268 217 265 221 270 238 222 317 235 264 316 240 318 219 295 296 262 0
-1743 7003 0
7003 -1746 0
-1749 7003 0
-1756 7003 0
-1757 7003 0
-1758 7003 0
7003 -1759 0
-1760 7003 0
-1761 7003 0
-1762 7003 0
-1763 7003 0
-1764 7003 0
7003 -1771 0
-1774 7003 0
-1777 7003 0
-1780 7003 0
7003 -1783 0
-1786 7003 0
-7003 1760 1749 1771 1759 1770 1780 1763 1783 1774 1756 1757 1764 1743 1765 1761 1762 1777 1786 1758 1746 1766 1767 1769 1768 0
-1807 7005 0
-1808 7005 0
-1810 7005 0
-1812 7005 0
-1852 7005 0
-1853 7005 0
-1854 7005 0
-1855 7005 0
-1856 7005 0
-1857 7005 0
-1906 7005 0
-1908 7005 0
-7005 1886 1855 1908 1854 1809 1810 1887 1882 1907 1808 1807 1860 1811 1906 1829 1828 1884 1856 1858 1859 1883 1827 1830 1852 1826 1885 1853 1825 1812 1857 0
-1957 7007 0
-1958 7007 0
-1959 7007 0
-1960 7007 0
-1961 7007 0
-1962 7007 0
-1975 7007 0
-1976 7007 0
-1977 7007 0
-1978 7007 0
-1979 7007 0
-1980 7007 0
-2002 7007 0
-2003 7007 0
-2004 7007 0
-2005 7007 0
-2006 7007 0
-2007 7007 0
-2008 7007 0
-2009 7007 0
-2010 7007 0
-2032 7007 0
-2033 7007 0
-2034 7007 0
-2035 7007 0
-2036 7007 0
-2037 7007 0
-2056 7007 0
-2057 7007 0
-2058 7007 0
-7007 2037 1975 2005 2032 1957 1958 1960 1959 1980 2036 1976 2058 2010 1978 2002 1962 2006 2007 2009 1961 1979 2034 1977 2008 2004 2033 2003 2056 2035 2057 0
-6999 -7003 0
-6999 -7005 0
-7005 -7003 0
-7007 -7003 0
7009 -201 0
7009 -208 0
-210 7009 0
7009 -241 0
-243 7009 0
-245 7009 0
-247 7009 0
-251 7009 0
7009 -271 0
-272 7009 0
-273 7009 0
-275 7009 0
-276 7009 0
-277 7009 0
-279 7009 0
-282 7009 0
7009 -283 0
-285 7009 0
7009 -287 0
-288 7009 0
-289 7009 0
-291 7009 0
7009 -300 0
-301 7009 0
-302 7009 0
-325 7009 0
-326 7009 0
7009 -330 0
-339 7009 0
7009 -341 0
-342 7009 0
7011 -547 0
7011 -548 0
-549 7011 0
-552 7011 0
-553 7011 0
-554 7011 0
-560 7011 0
-561 7011 0
-562 7011 0
-563 7011 0
-564 7011 0
-565 7011 0
-566 7011 0
-567 7011 0
-568 7011 0
-569 7011 0
-570 7011 0
-571 7011 0
-572 7011 0
-573 7011 0
-574 7011 0
-575 7011 0
7011 -576 0
-577 7011 0
-578 7011 0
-579 7011 0
-580 7011 0
-581 7011 0
-582 7011 0
-586 7011 0
7011 -587 0
-591 7011 0
-1790 7015 0
-1791 7015 0
-1797 7015 0
-1831 7015 0
-1832 7015 0
-1834 7015 0
-1836 7015 0
7015 -1841 0
-1861 7015 0
-1862 7015 0
-1863 7015 0
-1864 7015 0
-1865 7015 0
-1868 7015 0
-1870 7015 0
7015 -1871 0
-1872 7015 0
7015 -1873 0
7015 -1874 0
7015 -1878 0
7015 -1879 0
7015 -1880 0
7015 -1881 0
-1915 7015 0
-1916 7015 0
-1919 7015 0
-1920 7015 0
-1929 7015 0
-1931 7015 0
-7015 1881 1795 1879 1839 1880 1797 1889 1862 1791 1873 1888 1878 1874 1893 1875 1920 1877 1927 1890 1876 1840 1929 1871 1931 1841 1930 1842 1837 1869 1917 1866 1800 1867 1799 1932 1836 1838 1835 1870 1831 1834 1833 1861 1868 1863 1872 1864 1865 1796 1891 1892 1832 1798 1789 1916 1918 1790 1915 1928 1919 0
-1940 7017 0
-1941 7017 0
-1949 7017 0
-1950 7017 0
-1981 7017 0
-1982 7017 0
-1987 7017 0
-1988 7017 0
-1989 7017 0
-1990 7017 0
-1991 7017 0
-1992 7017 0
-2011 7017 0
-2012 7017 0
7017 -2029 0
-2030 7017 0
-2040 7017 0
7017 -2041 0
-2065 7017 0
-2066 7017 0
-2079 7017 0
-2080 7017 0
-7017 2080 2038 2043 1950 1984 2029 2030 2069 2070 2041 1949 2019 1989 2065 1945 2016 1947 1946 1940 1948 2022 2078 1981 2013 1941 2012 2018 1992 2011 2031 1983 1987 2021 1988 2024 2027 1990 2082 2015 2026 1985 1982 2068 2079 2039 2028 2017 2042 2077 2066 1986 2067 2081 1991 2040 1939 2020 2023 2025 2014 0
-7015 -7011 -7009 0
-7015 -7011 -7017 0
7019 -219 0
7019 -238 0
-549 7021 0
7021 -563 0
-571 7021 0
7025 -1881 0
-7025 1884 1856 1881 1879 1842 1862 1917 1789 1795 1854 1791 1916 1920 1790 1839 1852 1853 1880 1837 1855 1840 1799 1841 1796 1800 1838 1809 1810 1830 1812 1825 1826 1857 1861 1808 1863 1864 1865 1866 1867 1868 1869 1870 1871 1872 1827 1828 1829 1811 1807 1919 1885 1886 1887 1798 1797 1915 1918 1882 1883 0
-1939 7027 0
-1940 7027 0
-1941 7027 0
7027 -1945 0
-1946 7027 0
-1947 7027 0
-1948 7027 0
-1949 7027 0
7027 -1950 0
-1976 7027 0
-1977 7027 0
-1978 7027 0
-1979 7027 0
-1990 7027 0
-1992 7027 0
-2002 7027 0
-2004 7027 0
-2011 7027 0
-2016 7027 0
-2018 7027 0
-2020 7027 0
-2022 7027 0
-2030 7027 0
-2031 7027 0
-2035 7027 0
-2037 7027 0
-2065 7027 0
-2067 7027 0
-2070 7027 0
-7027 2066 1960 2019 2029 2069 1950 2022 1958 2030 2005 2002 2068 1959 2003 1939 1975 1989 2032 2021 2017 1992 1961 1948 2004 1962 1977 2065 1940 1976 2012 2014 1957 1988 1990 2016 2013 1949 2015 1941 1987 2020 2018 2034 1978 1947 2007 2033 2037 1980 2067 1991 2031 2011 2035 1946 2070 1979 2006 2036 1945 0
-7019 -7021 -7025 0
7029 -225 0
7029 -232 0
-255 7029 0
7029 -285 0
7029 -310 0
7029 -335 0
-7030 0
-7031 0
-7032 0
-1756 7033 0
-1759 7033 0
-1762 7033 0
-1771 7033 0
-1774 7033 0
-1776 7033 0
-1777 7033 0
-1780 7033 0
-1781 7033 0
-1783 7033 0
-1786 7033 0
-7033 1759 1742 1775 1783 1771 1750 1785 1787 1784 1772 1773 1754 1788 1745 1786 1756 1780 1778 1741 1753 1781 1782 1744 1774 1747 1777 1776 1779 1762 1755 1748 1751 1752 0
-7034 0
-1844 7035 0
-1845 7035 0
-7035 1903 1792 1817 1876 1793 1873 1901 1877 1824 1844 1832 1823 1888 1821 1932 1831 1845 1833 1822 1819 1836 1820 1818 1815 1874 1875 1816 1835 1878 1813 1894 1889 1891 1890 1893 1892 1814 1896 1834 1898 1897 1900 1899 1902 1895 1904 1843 1905 1794 1921 1922 1923 1924 1925 1927 1926 1928 1929 1930 1931 0
-7036 0
-1944 7037 0
-1963 7037 0
-1964 7037 0
-1965 7037 0
-1966 7037 0
-1967 7037 0
-1968 7037 0
-1969 7037 0
-1971 7037 0
-1972 7037 0
-1973 7037 0
-1993 7037 0
-1994 7037 0
-1995 7037 0
-2025 7037 0
-2026 7037 0
-2028 7037 0
-2045 7037 0
-2049 7037 0
-2051 7037 0
-2052 7037 0
-2053 7037 0
-2081 7037 0
-7037 1971 2038 1944 2043 2080 2051 1942 1981 1967 1966 2081 1963 2052 2042 1965 2040 2049 2041 2026 2047 1969 2073 1984 2054 1974 2024 2039 2082 1964 1985 1970 2045 2044 2075 2055 1982 2072 2025 1983 2053 2046 1986 2077 2027 2050 2023 2079 2071 2048 1968 1993 1972 1995 1973 2076 2074 2028 1994 2078 1943 0
-7038 0
-7029 -7035 -7033 0
-7029 -7035 -7037 0
7033 7035 7037 7030 7034 7031 7036 7032 7038 0
-212 7039 0
-214 7039 0
-215 7039 0
-216 7039 0
-257 7039 0
-258 7039 0
-260 7039 0
-261 7039 0
-269 7039 0
-318 7039 0
-319 7039 0
-320 7039 0
-321 7039 0
-323 7039 0
-343 7039 0
-344 7039 0
-345 7039 0
-347 7039 0
-348 7039 0
-551 7041 0
-557 7041 0
-559 7041 0
-564 7041 0
-567 7041 0
-575 7041 0
-582 7041 0
-583 7041 0
-584 7041 0
-585 7041 0
-586 7041 0
-587 7041 0
-588 7041 0
7041 -589 0
-590 7041 0
-591 7041 0
-592 7041 0
-593 7041 0
-594 7041 0
-1801 7045 0
-1802 7045 0
-1803 7045 0
-1804 7045 0
-1805 7045 0
-1806 7045 0
-1846 7045 0
-1847 7045 0
-1848 7045 0
-1849 7045 0
-1850 7045 0
-1851 7045 0
-1858 7045 0
-1859 7045 0
-1860 7045 0
-1906 7045 0
-1907 7045 0
-1908 7045 0
-1909 7045 0
-1910 7045 0
-1911 7045 0
-1912 7045 0
-1913 7045 0
-1914 7045 0
-1933 7045 0
-1934 7045 0
-1935 7045 0
-1936 7045 0
-1937 7045 0
-1938 7045 0
-7045 1913 1801 1851 1914 1933 1909 1938 1908 1846 1850 1937 1860 1802 1849 1859 1934 1936 1806 1847 1858 1848 1804 1803 1805 1912 1935 1906 1907 1910 1911 0
-1951 7047 0
-1952 7047 0
-1954 7047 0
-1956 7047 0
-1996 7047 0
-1997 7047 0
-1998 7047 0
-1999 7047 0
-2009 7047 0
-2010 7047 0
-2056 7047 0
-2057 7047 0
-2058 7047 0
-2059 7047 0
-2060 7047 0
-2061 7047 0
-2062 7047 0
-2063 7047 0
-2064 7047 0
-2083 7047 0
-2084 7047 0
-2085 7047 0
-2086 7047 0
-7047 2084 2008 2057 2085 2056 2060 2087 2064 1954 2062 1996 2083 2058 2000 2010 1998 1952 2063 1953 2009 1951 1955 2061 2088 2001 1997 1999 2059 2086 1956 0
-7039 -7041 0
-7039 -7045 0
-7045 -7041 0
-7047 -7041 0
-170 7049 0
-184 7049 0
-194 7049 0
-197 7049 0
-291 7051 0
-590 7053 0
-1763 7057 0
-1778 7057 0
-1781 7057 0
-7057 1767 1787 1760 1752 1754 1778 1781 1765 1784 1763 0
-7051 -7049 0
-7053 -7049 0
-7049 -7057 0
7059 -151 0
7059 -157 0
7059 -158 0
7059 -159 0
7059 -167 0
7059 -174 0
7059 -187 0
7059 -189 0
7059 -196 0
7061 -202 0
-205 7061 0
7061 -223 0
-224 7061 0
-225 7061 0
7061 -234 0
-255 7061 0
-296 7061 0
7061 -297 0
7061 -304 0
7061 -305 0
-314 7061 0
-330 7061 0
-331 7061 0
7061 -335 0
-7061 205 297 218 220 335 305 219 212 217 224 287 246 225 239 226 302 263 223 316 245 211 254 273 258 259 240 262 233 265 269 199 234 274 330 280 283 284 288 296 344 206 303 279 264 314 315 304 202 203 329 331 332 336 270 337 341 338 342 343 255 0
7063 -575 0
-1743 7067 0
7067 -1759 0
-1761 7067 0
-1764 7067 0
7067 -1772 0
-1788 7067 0
-7061 -7063 -7059 0
-7061 -7067 -7059 0
-7061 -7063 -7067 0
-154 7069 0
7069 -156 0
-7069 186 154 175 180 166 160 193 177 185 179 190 156 198 162 176 168 155 192 181 0
7071 -310 0
7073 -582 0
7073 -587 0
-1197 7075 0
7077 -1746 0
7077 -1749 0
7077 -1757 0
7077 -1758 0
-7075 -7071 -7073 0
-7071 -7073 -7077 0
-7079 166 152 198 186 185 157 154 193 190 175 192 156 176 195 167 196 155 174 168 0
-7080 0
-7081 273 341 271 311 297 346 221 200 340 290 302 339 205 226 272 289 295 220 263 335 262 241 201 204 235 215 274 209 283 210 242 268 296 206 248 216 303 301 300 225 315 317 318 323 219 324 329 236 330 336 310 222 326 342 345 284 294 314 247 325 0
-7082 0
-7083 561 560 576 589 552 591 548 562 594 564 580 563 554 592 549 577 581 556 587 0
-7084 0
-7085 1211 1306 1311 1321 1286 1202 1216 1197 1232 1243 1338 1217 1218 1201 1222 1221 1231 1237 1238 1244 1268 1258 1200 1259 1264 1206 1269 1270 1279 1280 1285 1196 1290 1291 1292 1293 1296 1297 1298 1299 1205 1307 1310 1212 1267 1313 1319 1320 1314 1322 1325 1326 1331 1332 1335 1336 1337 1215 1341 1342 0
-7086 0
-7088 0
7079 7081 7083 7085 7080 7084 7082 7086 7088 0
-160 7089 0
-161 7089 0
-162 7089 0
-177 7089 0
-178 7089 0
-179 7089 0
-181 7089 0
-208 7091 0
-214 7091 0
-228 7091 0
-243 7091 0
-244 7091 0
-253 7091 0
-257 7091 0
-277 7091 0
-278 7091 0
-285 7091 0
-291 7091 0
-313 7091 0
-7091 256 299 230 312 313 229 257 253 320 228 277 319 307 250 249 207 214 243 278 286 244 298 291 213 227 275 285 208 306 276 0
-553 7093 0
-555 7093 0
-565 7093 0
-566 7093 0
-579 7093 0
-582 7093 0
-584 7093 0
-1209 7095 0
-1210 7095 0
-1287 7095 0
-1294 7095 0
-1309 7095 0
-1316 7095 0
-1745 7097 0
-1748 7097 0
-1773 7097 0
-1776 7097 0
7097 -1787 0
-7097 1773 1748 1750 1776 1787 1784 1751 1745 0
-7091 -7089 0
-7089 -7097 0
-7091 -7093 0
-7095 -7091 0
-7095 -7093 0
-7093 -7097 0
7099 -159 0
7099 -194 0
7099 -197 0
7101 -202 0
7101 -255 0
7101 -305 0
-334 7101 0
7103 -575 0
7107 -1759 0
7107 -1760 0
7107 -1763 0
-1781 7107 0
-7101 -7103 -7099 0
-7101 -7107 -7099 0
-7101 -7103 -7107 0
7109 -160 0
7109 -177 0
7111 -202 0
7111 -285 0
7111 -305 0
7113 -575 0
7113 -585 0
-1743 7117 0
-1761 7117 0
-1764 7117 0
-1773 7117 0
7117 -1776 0
-7111 -7113 -7109 0
-7111 -7113 -7117 0
7119 -155 0
-7119 186 154 175 172 183 198 194 184 190 191 185 155 163 192 168 156 193 166 170 197 176 0
7121 -310 0
7123 -587 0
7127 -1760 0
-7121 -7127 -7123 0
-152 7129 0
-157 7129 0
7129 -161 0
-167 7129 0
7129 -178 0
-195 7129 0
-196 7129 0
-205 7131 0
-206 7131 0
-219 7131 0
-225 7131 0
-253 7131 0
-274 7131 0
-277 7131 0
-278 7131 0
-284 7131 0
-291 7131 0
-296 7131 0
-302 7131 0
-303 7131 0
-312 7131 0
-313 7131 0
-315 7131 0
-329 7131 0
-330 7131 0
-335 7131 0
-341 7131 0
-548 7133 0
-549 7133 0
-562 7133 0
-563 7133 0
-566 7133 0
-579 7133 0
-580 7133 0
-1215 7135 0
-1216 7135 0
-1249 7135 0
-1279 7135 0
-1280 7135 0
-1298 7135 0
-1299 7135 0
-1308 7135 0
-1309 7135 0
-1337 7135 0
-1338 7135 0
7137 -1783 0
-1784 7137 0
-1785 7137 0
-1786 7137 0
7137 -1787 0
-1788 7137 0
-7137 1769 1783 1786 1787 1785 1770 1788 1784 0
-7131 -7129 0
-7133 -7129 0
-7135 -7129 0
-7129 -7137 0
-7133 -7131 0
-7135 -7131 0
-429 7139 0
-430 7139 0
-435 7139 0
-436 7139 0
-449 7139 0
-450 7139 0
-451 7139 0
-458 7139 0
-459 7139 0
-464 7139 0
-465 7139 0
-475 7139 0
-476 7139 0
-479 7139 0
-480 7139 0
-489 7139 0
7139 -490 0
-491 7139 0
-506 7139 0
-507 7139 0
-510 7139 0
7139 -511 0
-519 7139 0
-520 7139 0
-525 7139 0
-526 7139 0
-531 7139 0
-532 7139 0
-545 7139 0
-546 7139 0
-7139 525 436 531 435 490 511 507 546 479 458 451 449 465 520 532 450 476 459 491 480 475 519 510 489 430 526 506 464 429 545 0
-1425 7141 0
-1426 7141 0
-1431 7141 0
-1432 7141 0
-1445 7141 0
-1446 7141 0
-1447 7141 0
-1454 7141 0
-1455 7141 0
-1460 7141 0
-1461 7141 0
-1471 7141 0
-1472 7141 0
-1475 7141 0
-1476 7141 0
-1485 7141 0
-1486 7141 0
-1487 7141 0
-1502 7141 0
-1503 7141 0
-1506 7141 0
-1507 7141 0
-1515 7141 0
-1516 7141 0
-1521 7141 0
-1522 7141 0
-1527 7141 0
-1528 7141 0
-1541 7141 0
-1542 7141 0
-7141 1476 1507 1472 1471 1541 1455 1447 1502 1521 1486 1425 1542 1431 1515 1432 1527 1522 1475 1446 1516 1454 1528 1426 1503 1445 1460 1485 1487 1506 1461 0
-1623 7143 0
-1629 7143 0
-1630 7143 0
-1645 7143 0
-1652 7143 0
-1653 7143 0
-1658 7143 0
-1659 7143 0
-1670 7143 0
-1673 7143 0
-1674 7143 0
-1683 7143 0
-1684 7143 0
-1700 7143 0
-1701 7143 0
-1704 7143 0
-1705 7143 0
-1719 7143 0
-1720 7143 0
-1725 7143 0
-1739 7143 0
-1740 7143 0
-7143 1683 1624 1740 1705 1713 1673 1645 1684 1719 1643 1623 1704 1653 1701 1658 1669 1659 1700 1652 1629 1644 1714 1670 1720 1630 1726 1674 1725 1685 1739 0
-1841 7145 0
-1842 7145 0
-1843 7145 0
-1850 7145 0
-1856 7145 0
7145 -1881 0
-1911 7145 0
-1912 7145 0
-1923 7145 0
-7145 1882 1872 1850 1918 1881 1917 1827 1843 1841 1856 1902 1903 1912 1857 1938 1911 1851 1923 1842 1868 1899 1883 1898 1867 1828 1821 1871 1924 1937 1822 0
-1971 7147 0
-1972 7147 0
-1977 7147 0
-1978 7147 0
-1991 7147 0
-1992 7147 0
-1993 7147 0
-2000 7147 0
-2001 7147 0
-2006 7147 0
-2007 7147 0
-2017 7147 0
-2018 7147 0
-2021 7147 0
-2022 7147 0
-2031 7147 0
-2032 7147 0
-2033 7147 0
-2048 7147 0
-2049 7147 0
-2052 7147 0
-2053 7147 0
-2061 7147 0
-2062 7147 0
-2067 7147 0
-2068 7147 0
-2073 7147 0
-2074 7147 0
-2087 7147 0
-2088 7147 0
-7147 2074 2001 2031 2052 2021 1991 2018 2022 2006 1972 2061 1993 2073 2067 2087 2062 2088 1978 2048 1977 2033 2007 2032 2053 2049 2000 2068 1971 1992 2017 0
-7141 -7139 0
-7143 -7139 0
-7145 -7139 0
-7147 -7139 0
-7141 -7143 0
-7141 -7145 0
-7143 -7145 0
-7147 -7143 0
-7147 -7145 0
-494 7149 0
7149 -495 0
-500 7149 0
7149 -501 0
7149 -502 0
7149 -503 0
7149 -514 0
-1393 7151 0
-1396 7151 0
-1397 7151 0
-1399 7151 0
-1400 7151 0
-1405 7151 0
-1406 7151 0
-1411 7151 0
-1412 7151 0
-1413 7151 0
-1414 7151 0
-1417 7151 0
-1418 7151 0
-1419 7151 0
-1420 7151 0
-1433 7151 0
-1434 7151 0
-1439 7151 0
-1448 7151 0
-1449 7151 0
7151 -1452 0
-1453 7151 0
-1456 7151 0
-1457 7151 0
-1458 7151 0
-1459 7151 0
-1463 7151 0
-1464 7151 0
-1467 7151 0
-1468 7151 0
-1473 7151 0
-1474 7151 0
-1477 7151 0
-1478 7151 0
-1481 7151 0
-1482 7151 0
-1490 7151 0
-1491 7151 0
-1497 7151 0
-1498 7151 0
-1499 7151 0
-1508 7151 0
-1510 7151 0
-1529 7151 0
-1535 7151 0
-7151 1414 1449 1397 1474 1473 1458 1482 1538 1406 1537 1393 1524 1532 1508 1535 1467 1419 1468 1411 1413 1453 1530 1491 1481 1399 1478 1526 1477 1497 1509 1510 1417 1448 1496 1396 1529 1536 1499 1412 1418 1459 1523 1440 1498 1456 1405 1427 1525 1490 1464 1434 1433 1452 1420 1439 1400 1457 1428 1463 1531 0
7153 -1591 0
7153 -1595 0
7153 -1597 0
7153 -1662 0
7153 -1672 0
7153 -1708 0
-7153 1688 1661 1612 1696 1697 1675 1591 1594 1646 1689 1654 1706 1616 1603 1680 1626 1722 1734 1611 1729 1631 1730 1651 1671 1694 1595 1655 1727 1672 1617 1604 1647 1618 1665 1695 1650 1724 1625 1657 1615 1679 1666 1632 1609 1676 1597 1707 1733 1662 1708 1610 1735 1656 1723 1638 1728 1598 1721 1736 1637 0
-1795 7155 0
7155 -1796 0
7155 -1813 0
7155 -1814 0
7155 -1815 0
-1844 7155 0
7155 -1845 0
7155 -1852 0
-1853 7155 0
7155 -1873 0
7155 -1874 0
7155 -1877 0
7155 -1892 0
-1925 7155 0
-7155 1845 1789 1793 1801 1844 1853 1855 1807 1877 1810 1848 1893 1934 1932 1878 1860 1874 1802 1854 1887 1905 1894 1824 1815 1792 1922 1925 1816 1813 1796 1852 1863 1864 1869 1895 1835 1870 1933 1809 1795 1892 1823 1814 1849 1873 1904 1859 1906 1919 1920 1829 1830 1921 1836 1927 1886 1928 1808 1926 1931 0
-1939 7157 0
-1942 7157 0
-1943 7157 0
-1945 7157 0
-1946 7157 0
-1951 7157 0
-1952 7157 0
-1957 7157 0
-1958 7157 0
-1959 7157 0
-1960 7157 0
-1963 7157 0
-1964 7157 0
-1965 7157 0
-1966 7157 0
-1973 7157 0
-1974 7157 0
-1979 7157 0
-1980 7157 0
-1985 7157 0
-1986 7157 0
-1995 7157 0
-2002 7157 0
-2004 7157 0
-2005 7157 0
-2009 7157 0
-2010 7157 0
-2013 7157 0
-2014 7157 0
-2019 7157 0
-2020 7157 0
-2023 7157 0
-2024 7157 0
-2027 7157 0
-2028 7157 0
-2036 7157 0
-2037 7157 0
-2042 7157 0
7157 -2043 0
-2044 7157 0
-2045 7157 0
-2055 7157 0
-2056 7157 0
-2069 7157 0
-2070 7157 0
-2077 7157 0
-2078 7157 0
-2081 7157 0
-2082 7157 0
-7157 2028 1943 1994 2043 2069 2083 2084 2056 2072 1998 1946 1945 1986 1979 2020 1942 2027 1966 2042 1951 1965 2070 1974 2010 2054 1980 2071 1939 2055 1964 2024 2037 1958 2075 1995 1963 2014 2045 2003 2078 2036 2009 1985 1999 1959 2002 1973 2081 2082 2019 1952 1960 2005 2013 2023 2077 2004 2044 2076 1957 0
-7151 -7155 -7149 0
-7155 -7153 -7149 0
-7155 -7157 -7149 0
-7155 -7153 -7157 0
-398 7159 0
-399 7159 0
-407 7159 0
-408 7159 0
-411 7159 0
-413 7159 0
-414 7159 0
-419 7159 0
-439 7159 0
-440 7159 0
-441 7159 0
-445 7159 0
-446 7159 0
-447 7159 0
-448 7159 0
-454 7159 0
-455 7159 0
-466 7159 0
-469 7159 0
-470 7159 0
-473 7159 0
-474 7159 0
-483 7159 0
-484 7159 0
-524 7159 0
-538 7159 0
-7159 441 414 469 518 447 402 544 426 537 427 399 474 407 398 543 522 487 455 442 496 454 412 408 505 428 504 446 419 425 434 440 516 509 473 470 484 405 448 413 493 524 406 498 445 497 420 439 411 492 523 515 508 517 466 521 488 433 499 538 483 0
-7160 0
-1394 7161 0
-1395 7161 0
-1398 7161 0
-1401 7161 0
-1402 7161 0
-1403 7161 0
-1404 7161 0
-1407 7161 0
-1408 7161 0
-1409 7161 0
-1410 7161 0
-1415 7161 0
-1416 7161 0
-1421 7161 0
-1422 7161 0
-1423 7161 0
-1424 7161 0
-1429 7161 0
-1430 7161 0
-1435 7161 0
-1436 7161 0
-1437 7161 0
-1438 7161 0
-1441 7161 0
-1442 7161 0
-1443 7161 0
-1444 7161 0
-1451 7161 0
-1462 7161 0
-1465 7161 0
-1466 7161 0
-1469 7161 0
-1470 7161 0
-1479 7161 0
-1480 7161 0
-1483 7161 0
-1484 7161 0
-1488 7161 0
-1489 7161 0
-1492 7161 0
-1493 7161 0
-1494 7161 0
-1495 7161 0
-1500 7161 0
-1501 7161 0
-1504 7161 0
-1505 7161 0
-1511 7161 0
7161 -1512 0
-1513 7161 0
-1517 7161 0
-1518 7161 0
-1519 7161 0
-1520 7161 0
-1533 7161 0
-1534 7161 0
-1539 7161 0
-1540 7161 0
-7161 1398 1395 1470 1492 1504 1540 1430 1484 1519 1466 1495 1479 1403 1442 1534 1489 1494 1416 1409 1415 1520 1465 1533 1437 1404 1438 1402 1511 1421 1513 1500 1444 1450 1512 1407 1483 1501 1514 1488 1435 1462 1429 1394 1517 1422 1401 1505 1480 1408 1410 1441 1424 1423 1436 1493 1443 1451 1469 1518 1539 0
-7162 0
-1596 7163 0
-1660 7163 0
-1681 7163 0
-1682 7163 0
-1686 7163 0
-1703 7163 0
-1709 7163 0
-1710 7163 0
-7163 1692 1593 1667 1668 1677 1664 1608 1660 1687 1602 1681 1718 1703 1663 1712 1691 1620 1738 1628 1635 1642 1621 1690 1648 1702 1596 1614 1592 1682 1607 1633 1606 1641 1639 1649 1678 1716 1627 1710 1709 1605 1634 1622 1636 1698 1699 1601 1619 1600 1693 1640 1613 1711 1737 1599 1715 1731 1717 1732 1686 0
-7164 0
-1879 7165 0
-1880 7165 0
-7165 1907 1858 1880 1862 1879 1840 1908 1910 1929 1876 1935 1846 1812 1888 1889 1838 1805 1800 1914 1790 1799 1885 1837 1847 1839 1909 1913 1832 1891 1936 1861 1834 1865 1866 1806 1818 1833 1817 1884 1916 1875 1819 1820 1930 1896 1897 1811 1804 1791 1803 1825 1826 1890 1831 1900 1901 1797 1798 1794 1915 0
-7166 0
-1941 7167 0
-1944 7167 0
-1947 7167 0
-1948 7167 0
-1949 7167 0
-1950 7167 0
-1953 7167 0
-1954 7167 0
-1956 7167 0
-1961 7167 0
-1962 7167 0
-1967 7167 0
-1968 7167 0
-1969 7167 0
-1970 7167 0
-1975 7167 0
-1976 7167 0
-1981 7167 0
-1982 7167 0
-1983 7167 0
-1984 7167 0
-1987 7167 0
-1988 7167 0
-1989 7167 0
-1990 7167 0
-1996 7167 0
-1997 7167 0
-2008 7167 0
-2011 7167 0
-2012 7167 0
-2015 7167 0
-2016 7167 0
-2025 7167 0
-2026 7167 0
-2029 7167 0
-2030 7167 0
-2034 7167 0
-2035 7167 0
-2038 7167 0
-2039 7167 0
-2040 7167 0
-2041 7167 0
-2046 7167 0
-2047 7167 0
-2050 7167 0
-2051 7167 0
-2057 7167 0
-2058 7167 0
-2063 7167 0
-2064 7167 0
-2066 7167 0
-7167 2029 2038 1944 1981 2079 2058 2060 2035 2046 1950 1989 2086 1956 2026 1996 1987 2050 1955 1961 1997 2066 1940 1962 2030 1990 1976 2059 1941 2034 2015 2012 2057 2039 1953 1948 2008 1969 2051 1983 1982 2041 1968 1949 2064 1967 2025 1954 2065 1970 2011 2063 1975 1947 2080 1988 2047 1984 2016 2040 2085 0
-7168 0
-7161 -7163 -7159 0
-7159 -7163 -7165 0
-7163 -7159 -7167 0
-7159 -7165 -7167 0
-7161 -7163 -7165 0
-7163 -7165 -7167 0
7159 7163 7165 7167 7164 7162 7166 7160 7168 0
-407 7169 0
-460 7169 0
7169 -461 0
-471 7169 0
-472 7169 0
-481 7169 0
-482 7169 0
-527 7169 0
-528 7169 0
-533 7169 0
-534 7169 0
-539 7169 0
-540 7169 0
-1394 7171 0
-1398 7171 0
-1399 7171 0
-1400 7171 0
-1457 7171 0
-1468 7171 0
-1478 7171 0
-1490 7171 0
-1497 7171 0
-1509 7171 0
-1523 7171 0
-1524 7171 0
-1530 7171 0
-1533 7171 0
-1535 7171 0
-1536 7171 0
-7171 1398 1465 1512 1519 1394 1414 1504 1404 1415 1509 1529 1540 1535 1495 1518 1413 1456 1533 1497 1523 1524 1403 1442 1489 1491 1466 1511 1534 1467 1496 1416 1400 1477 1399 1395 1505 1468 1520 1430 1536 1436 1517 1441 1530 1483 1409 1484 1457 1429 1462 1494 1478 1419 1410 1490 1420 1488 1508 1435 1539 0
7173 -1596 0
7173 -1618 0
7173 -1660 0
7173 -1681 0
7173 -1682 0
7173 -1709 0
7173 -1710 0
7175 -1879 0
7175 -1880 0
-7175 1879 1825 1861 1907 1874 1885 1890 1936 1914 1893 1908 1932 1873 1862 1935 1887 1930 1853 1815 1800 1810 1799 1863 1858 1929 1795 1925 1864 1852 1916 1816 1838 1811 1812 1837 1805 1884 1891 1892 1880 1886 1790 1794 1905 1791 1806 1901 1826 1926 1913 1900 1796 1831 1832 1809 1915 1920 1919 1904 1931 0
-1940 7177 0
-1941 7177 0
-1944 7177 0
-1945 7177 0
-1946 7177 0
-1949 7177 0
7177 -1950 0
-1955 7177 0
-1956 7177 0
-1959 7177 0
-1960 7177 0
-1962 7177 0
-1965 7177 0
-1966 7177 0
-1975 7177 0
-1976 7177 0
-1981 7177 0
-1982 7177 0
-1987 7177 0
-1988 7177 0
-2002 7177 0
-2003 7177 0
-2008 7177 0
-2011 7177 0
-2013 7177 0
-2014 7177 0
-2023 7177 0
-2024 7177 0
7177 -2029 0
-2030 7177 0
-2034 7177 0
-2035 7177 0
-2036 7177 0
-2037 7177 0
-2040 7177 0
-2042 7177 0
-2051 7177 0
-2054 7177 0
-2055 7177 0
-2058 7177 0
-2063 7177 0
-2064 7177 0
-2070 7177 0
-2075 7177 0
-2076 7177 0
-2085 7177 0
-2086 7177 0
-7177 2037 1955 1945 2043 1950 2066 2029 2069 2012 2082 2050 2030 1956 2057 2042 1965 2024 1940 1941 2065 2008 1966 1962 2041 2054 2085 2002 1988 1961 2003 2023 2035 1949 2034 2064 1944 2051 2086 2014 1981 2013 2055 1987 2036 1982 2075 1976 2079 1960 2070 2080 1959 1975 2076 2040 1946 2063 2081 2058 2011 0
-7169 -7173 -7175 0
-7173 -7169 -7177 0
-7171 -7173 -7175 0
-7173 -7175 -7177 0
-405 7179 0
-406 7179 0
-411 7179 0
-412 7179 0
-425 7179 0
-426 7179 0
-427 7179 0
-428 7179 0
-441 7179 0
-442 7179 0
-447 7179 0
-448 7179 0
-454 7179 0
-455 7179 0
-473 7179 0
-474 7179 0
-476 7179 0
-483 7179 0
-484 7179 0
-496 7179 0
-497 7179 0
-504 7179 0
-505 7179 0
-517 7179 0
-518 7179 0
-7179 511 412 441 496 510 518 489 448 428 426 451 442 427 484 476 455 483 473 411 474 475 406 425 505 504 497 405 454 447 517 0
-7180 0
-1401 7181 0
-1402 7181 0
-1407 7181 0
-1408 7181 0
-1421 7181 0
-1422 7181 0
-1423 7181 0
-1424 7181 0
-1437 7181 0
-1438 7181 0
-1443 7181 0
-1444 7181 0
-1447 7181 0
-1450 7181 0
-1451 7181 0
-1469 7181 0
-1470 7181 0
-1479 7181 0
-1480 7181 0
-1492 7181 0
-1493 7181 0
-1500 7181 0
-1501 7181 0
-1513 7181 0
-1514 7181 0
-7181 1402 1506 1450 1408 1513 1470 1492 1401 1480 1472 1514 1447 1493 1407 1469 1423 1424 1451 1421 1422 1507 1471 1479 1485 1443 1500 1438 1501 1444 1437 0
-7182 0
-1599 7183 0
-1600 7183 0
-1605 7183 0
-1606 7183 0
-1619 7183 0
-1620 7183 0
-1621 7183 0
-1622 7183 0
-1635 7183 0
-1636 7183 0
-1641 7183 0
-1642 7183 0
-1645 7183 0
-1648 7183 0
-1649 7183 0
-1667 7183 0
-1668 7183 0
-1669 7183 0
-1670 7183 0
-1677 7183 0
-1678 7183 0
-1683 7183 0
-1690 7183 0
-1691 7183 0
-1698 7183 0
-1699 7183 0
-1705 7183 0
-1712 7183 0
-7183 1691 1670 1649 1605 1619 1645 1667 1668 1600 1648 1705 1683 1620 1642 1690 1669 1621 1677 1711 1606 1636 1698 1641 1678 1704 1622 1699 1599 1712 1635 0
-7184 0
-1797 7185 0
-1798 7185 0
-1817 7185 0
-1839 7185 0
-1840 7185 0
-1843 7185 0
-1875 7185 0
-1876 7185 0
-1881 7185 0
-1888 7185 0
-1889 7185 0
-1909 7185 0
-7185 1881 1868 1797 1803 1804 1888 1840 1875 1876 1910 1902 1833 1834 1839 1843 1865 1817 1903 1867 1846 1819 1909 1889 1847 1820 1896 1897 1818 1798 1866 0
-7186 0
-1947 7187 0
-1948 7187 0
-1953 7187 0
-1954 7187 0
-1967 7187 0
-1968 7187 0
-1969 7187 0
-1970 7187 0
-1983 7187 0
-1984 7187 0
-1989 7187 0
-1990 7187 0
-1996 7187 0
-1997 7187 0
-2015 7187 0
-2016 7187 0
-2025 7187 0
-2026 7187 0
-2038 7187 0
-2039 7187 0
-2046 7187 0
-2047 7187 0
-2059 7187 0
-2060 7187 0
-7187 1967 2017 2038 2060 1983 1968 2031 1948 2026 1970 1996 2059 2016 1954 1989 2053 2039 2047 1990 2046 2018 1947 1984 1997 2052 2025 1993 2015 1969 1953 0
-7188 0
-7183 -7179 0
-7185 -7179 0
-7187 -7179 0
-7181 -7183 0
-7181 -7185 0
-7183 -7185 0
-7183 -7187 0
-7185 -7187 0
7179 7181 7183 7185 7187 7184 7182 7186 7180 7188 0
-7189 503 478 490 435 502 462 449 421 456 430 452 416 507 531 532 479 444 526 477 453 450 409 410 542 520 467 457 463 443 438 465 464 415 436 400 519 541 468 429 514 401 459 485 480 506 491 431 486 529 437 458 397 422 546 525 530 536 432 535 545 0
-7190 0
-1393 7191 0
-7191 1411 1397 1542 1446 1510 1522 1526 1498 1460 1532 1525 1487 1432 1455 1393 1474 1486 1537 1427 1445 1541 1431 1452 1538 1531 1453 1461 1503 1440 1448 1528 1475 1464 1418 1449 1527 1516 1396 1463 1473 1426 1482 1521 1454 1433 1425 1481 1515 1412 1405 1417 1428 1459 1458 1406 1499 1434 1476 1439 1502 0
-7192 0
-1625 7193 0
-1708 7193 0
-7193 1626 1591 1615 1625 1696 1697 1662 1646 1594 1658 1624 1657 1714 1616 1632 1653 1680 1650 1623 1685 1629 1656 1719 1652 1643 1672 1647 1673 1631 1595 1630 1644 1609 1723 1610 1604 1684 1726 1674 1713 1736 1725 1701 1659 1671 1637 1708 1651 1638 1739 1730 1735 1700 1740 1679 1729 1603 1724 1661 1720 0
-7194 0
-1844 7195 0
-1845 7195 0
-7195 1882 1844 1842 1849 1871 1848 1792 1854 1938 1850 1855 1856 1808 1845 1878 1857 1851 1814 1802 1922 1928 1933 1836 1793 1921 1917 1841 1923 1883 1822 1912 1859 1860 1869 1870 1877 1872 1830 1911 1813 1894 1789 1821 1895 1899 1898 1823 1824 1835 1937 1827 1828 1829 1906 1807 1924 1801 1918 1927 1934 0
-7196 0
-1991 7197 0
-1992 7197 0
-2021 7197 0
-2022 7197 0
-2067 7197 0
-2068 7197 0
-7198 0
-7197 -7195 -7193 0
7189 7191 7193 7195 7190 7194 7192 7196 7198 0
7201 -1393 0
-1396 7201 0
-1397 7201 0
-1401 7201 0
-1402 7201 0
-1405 7201 0
-1406 7201 0
-1407 7201 0
-1408 7201 0
-1411 7201 0
-1412 7201 0
-1417 7201 0
-1418 7201 0
-1421 7201 0
-1422 7201 0
-1424 7201 0
-1427 7201 0
-1428 7201 0
-1433 7201 0
-1434 7201 0
-1438 7201 0
-1439 7201 0
-1440 7201 0
-1443 7201 0
-1448 7201 0
-1449 7201 0
7201 -1452 0
7201 -1453 0
-1458 7201 0
-1459 7201 0
-1463 7201 0
-1464 7201 0
-1469 7201 0
-1473 7201 0
-1474 7201 0
-1479 7201 0
-1480 7201 0
-1481 7201 0
-1482 7201 0
-1492 7201 0
-1493 7201 0
-1498 7201 0
-1499 7201 0
-1501 7201 0
-1510 7201 0
-1514 7201 0
-1525 7201 0
-1526 7201 0
-1531 7201 0
-1532 7201 0
-7201 1396 1393 1443 1397 1434 1439 1500 1538 1470 1514 1469 1493 1423 1498 1451 1482 1537 1438 1450 1402 1453 1525 1427 1411 1532 1501 1417 1421 1474 1481 1407 1401 1412 1513 1480 1463 1408 1433 1448 1437 1473 1449 1405 1422 1458 1492 1510 1406 1444 1464 1459 1418 1479 1499 1428 1526 1440 1452 1424 1531 0
7203 -1708 0
7205 -1844 0
-1947 7207 0
-1948 7207 0
-1958 7207 0
-1983 7207 0
-1984 7207 0
-1989 7207 0
-1990 7207 0
-2015 7207 0
-2016 7207 0
-2025 7207 0
-2026 7207 0
7207 -2038 0
-2039 7207 0
-2056 7207 0
-7207 1967 1948 2038 1942 1983 2072 1994 2044 2060 2077 1951 1998 2015 2083 2010 1989 2027 1980 2004 1968 1986 2016 2020 2056 1969 2084 2026 1953 1973 2025 1997 2059 2071 2039 1996 2028 1970 1957 1939 1995 1999 1979 1984 1963 1954 2009 1943 1947 1964 1952 1974 2047 1990 2078 2045 2019 1958 2046 1985 2005 0
-7205 -7203 -7207 0
-407 7209 0
-458 7209 0
-459 7209 0
-464 7209 0
-465 7209 0
-543 7209 0
-544 7209 0
-545 7209 0
-546 7209 0
-7209 509 469 537 435 532 414 544 398 459 399 487 490 507 516 498 407 522 466 402 543 470 436 464 419 420 430 429 446 479 413 440 445 439 491 524 433 493 408 525 458 523 450 506 480 449 520 521 546 515 488 465 526 492 508 434 531 519 538 499 545 0
-7210 0
7211 -1395 0
7211 -1398 0
-1404 7211 0
7211 -1415 0
-1429 7211 0
-1430 7211 0
7211 -1431 0
-1432 7211 0
7211 -1442 0
-1445 7211 0
-1446 7211 0
7211 -1454 0
7211 -1461 0
7211 -1462 0
-1476 7211 0
-1484 7211 0
7211 -1487 0
7211 -1489 0
7211 -1502 0
7211 -1503 0
7211 -1515 0
7211 -1520 0
7211 -1539 0
7211 -1542 0
-7211 1431 1395 1475 1518 1539 1466 1476 1398 1495 1436 1494 1542 1541 1516 1409 1527 1522 1455 1515 1426 1502 1430 1446 1486 1504 1394 1410 1445 1460 1519 1520 1528 1465 1512 1488 1403 1441 1505 1432 1483 1484 1435 1533 1487 1534 1415 1517 1454 1521 1462 1442 1416 1404 1461 1503 1489 1425 1540 1511 1429 0
-7212 0
-1596 7213 0
-1660 7213 0
-1710 7213 0
-7213 1634 1601 1652 1717 1701 1740 1596 1602 1592 1660 1593 1687 1658 1702 1692 1682 1703 1664 1718 1719 1685 1674 1633 1686 1643 1663 1623 1607 1715 1673 1639 1629 1659 1710 1653 1644 1709 1640 1700 1608 1628 1613 1720 1716 1725 1630 1693 1739 1624 1614 1681 1732 1684 1714 1726 1737 1738 1627 1731 1713 0
-7214 0
-1879 7215 0
-1880 7215 0
-7215 1879 1872 1938 1880 1882 1908 1857 1929 1930 1935 1936 1891 1914 1937 1862 1907 1831 1850 1856 1800 1832 1812 1912 1842 1918 1858 1861 1821 1871 1806 1805 1838 1799 1883 1884 1851 1828 1790 1916 1837 1841 1794 1791 1811 1822 1825 1898 1826 1900 1899 1917 1885 1827 1890 1911 1901 1913 1923 1924 1915 0
-7216 0
-1940 7217 0
-1941 7217 0
-1944 7217 0
-1949 7217 0
-1950 7217 0
-1955 7217 0
-1956 7217 0
-1961 7217 0
-1962 7217 0
-1971 7217 0
-1972 7217 0
-1975 7217 0
-1976 7217 0
-1977 7217 0
-1978 7217 0
-1981 7217 0
-1982 7217 0
-1987 7217 0
-1988 7217 0
-1991 7217 0
-1992 7217 0
-2000 7217 0
-2001 7217 0
-2006 7217 0
-2007 7217 0
-2008 7217 0
-2011 7217 0
-2012 7217 0
-2022 7217 0
-2032 7217 0
-2033 7217 0
-2048 7217 0
-2049 7217 0
-2061 7217 0
-2073 7217 0
-2074 7217 0
-2087 7217 0
-2088 7217 0
-7217 1972 2029 1950 1944 2062 2030 1941 2041 2006 2086 2066 2058 2007 2032 2050 1955 1940 2048 2022 2065 1962 1977 2088 2074 2080 1982 1949 2063 2008 1987 2061 2012 1981 2033 1988 2064 1976 2000 2057 1991 1956 2035 2087 2021 1975 2068 2073 2085 2034 2001 1971 1992 1978 2049 1961 2079 2040 2051 2011 2067 0
-7218 0
-7209 -7213 -7215 0
-7209 -7213 -7217 0
-7213 -7215 -7217 0
7213 7209 7215 7217 7214 7212 7216 7210 7218 0
-403 7219 0
-404 7219 0
-417 7219 0
-418 7219 0
-423 7219 0
-424 7219 0
-460 7219 0
-461 7219 0
-471 7219 0
-472 7219 0
-475 7219 0
-476 7219 0
-481 7219 0
-482 7219 0
-489 7219 0
-494 7219 0
-495 7219 0
-500 7219 0
-501 7219 0
-510 7219 0
-511 7219 0
-512 7219 0
-513 7219 0
-527 7219 0
-528 7219 0
-533 7219 0
-534 7219 0
-539 7219 0
-540 7219 0
-7219 500 481 534 513 482 404 528 511 424 403 451 527 539 533 495 472 417 501 475 489 512 540 471 510 476 423 461 494 418 460 0
-7220 0
-1399 7221 0
-1400 7221 0
-1413 7221 0
-1414 7221 0
-1419 7221 0
-1420 7221 0
-1456 7221 0
-1457 7221 0
-1467 7221 0
-1468 7221 0
-1471 7221 0
-1472 7221 0
-1477 7221 0
-1478 7221 0
-1485 7221 0
-1490 7221 0
-1491 7221 0
-1496 7221 0
-1497 7221 0
-1506 7221 0
-1507 7221 0
-1508 7221 0
-1509 7221 0
-1523 7221 0
-1524 7221 0
-1529 7221 0
-1530 7221 0
-1535 7221 0
-1536 7221 0
-7221 1472 1508 1447 1524 1536 1420 1414 1507 1399 1496 1477 1413 1509 1471 1535 1485 1530 1467 1506 1419 1400 1523 1478 1468 1491 1457 1456 1529 1497 1490 0
-7222 0
-1597 7223 0
-1598 7223 0
-1611 7223 0
-1612 7223 0
-1617 7223 0
-1618 7223 0
-1645 7223 0
-1654 7223 0
-1655 7223 0
-1665 7223 0
-1666 7223 0
-1669 7223 0
-1670 7223 0
-1675 7223 0
-1676 7223 0
-1683 7223 0
-1688 7223 0
-1689 7223 0
-1694 7223 0
-1704 7223 0
-1705 7223 0
-1706 7223 0
-1707 7223 0
-1721 7223 0
-1722 7223 0
-1733 7223 0
-1734 7223 0
-7223 1688 1670 1617 1598 1665 1645 1612 1655 1694 1704 1689 1683 1705 1695 1721 1654 1611 1706 1669 1597 1722 1618 1728 1734 1666 1727 1675 1707 1676 1733 0
-7224 0
-1795 7225 0
-1796 7225 0
-1815 7225 0
-1843 7225 0
-1852 7225 0
-1853 7225 0
-1873 7225 0
-1874 7225 0
-1881 7225 0
-1892 7225 0
-1893 7225 0
-1925 7225 0
-1926 7225 0
-1931 7225 0
-1932 7225 0
-7225 1881 1843 1863 1886 1809 1795 1873 1796 1810 1926 1932 1903 1852 1868 1867 1925 1919 1902 1893 1920 1815 1853 1816 1874 1892 1931 1905 1864 1904 1887 0
-7226 0
-1945 7227 0
-1946 7227 0
-1959 7227 0
-1960 7227 0
-1965 7227 0
-1966 7227 0
-2002 7227 0
-2003 7227 0
-2013 7227 0
-2014 7227 0
-2023 7227 0
-2024 7227 0
-2031 7227 0
-2036 7227 0
-2037 7227 0
-2042 7227 0
-2043 7227 0
-2054 7227 0
-2055 7227 0
-2069 7227 0
-2070 7227 0
-2075 7227 0
-2076 7227 0
-2081 7227 0
-2082 7227 0
-7227 2042 2052 2043 2031 2069 2075 1960 2024 1966 1965 2037 1946 2023 1959 2070 2082 2013 2054 2017 2003 2014 2076 1993 2053 1945 2018 2036 2055 2081 2002 0
-7228 0
-7223 -7219 0
-7225 -7219 0
-7227 -7219 0
-7221 -7223 0
-7221 -7225 0
-7223 -7225 0
-7223 -7227 0
-7225 -7227 0
7219 7221 7223 7225 7227 7224 7222 7226 7220 7228 0
-229 7229 0
-234 7229 0
-235 7229 0
-240 7229 0
-248 7229 0
-250 7229 0
-254 7229 0
-257 7229 0
-259 7229 0
-263 7229 0
-265 7229 0
7229 -271 0
-274 7229 0
-276 7229 0
-294 7229 0
-296 7229 0
-305 7229 0
-306 7229 0
-311 7229 0
-315 7229 0
-319 7229 0
-324 7229 0
-325 7229 0
-330 7229 0
-331 7229 0
-336 7229 0
-344 7229 0
-346 7229 0
-7229 271 305 280 324 263 315 346 240 257 235 294 274 234 290 265 276 259 229 336 325 254 311 319 330 296 250 248 306 331 344 0
-1250 7231 0
-1253 7231 0
-1267 7231 0
-1286 7231 0
-1315 7231 0
-1423 7233 0
-1428 7233 0
-1429 7233 0
-1434 7233 0
-1442 7233 0
-1444 7233 0
-1448 7233 0
-1451 7233 0
-1453 7233 0
-1457 7233 0
-1459 7233 0
-1465 7233 0
-1468 7233 0
-1470 7233 0
-1474 7233 0
-1484 7233 0
-1488 7233 0
-1490 7233 0
-1499 7233 0
-1500 7233 0
-1505 7233 0
-1509 7233 0
-1513 7233 0
-1518 7233 0
-1519 7233 0
-1524 7233 0
-1525 7233 0
-1530 7233 0
-1538 7233 0
-1540 7233 0
-7233 1448 1490 1505 1470 1474 1513 1423 1509 1524 1499 1519 1451 1500 1468 1428 1540 1525 1484 1429 1457 1442 1530 1518 1459 1465 1444 1434 1453 1488 1538 0
-1621 7235 0
-1626 7235 0
-1627 7235 0
-1632 7235 0
-1640 7235 0
-1646 7235 0
-1649 7235 0
-1651 7235 0
-1655 7235 0
-1657 7235 0
-1663 7235 0
-1666 7235 0
-1668 7235 0
-1672 7235 0
-1682 7235 0
-1686 7235 0
7235 -1688 0
7235 -1697 0
-1698 7235 0
-1703 7235 0
-1707 7235 0
-1711 7235 0
-1716 7235 0
-1717 7235 0
-1722 7235 0
-1723 7235 0
-1728 7235 0
-1736 7235 0
-1738 7235 0
-7235 1703 1657 1697 1688 1738 1668 1666 1711 1626 1663 1707 1686 1722 1651 1627 1672 1642 1698 1682 1716 1655 1717 1640 1646 1728 1736 1649 1723 1632 1621 0
-1838 7237 0
-1844 7237 0
-1847 7237 0
-1853 7237 0
-1861 7237 0
-1866 7237 0
-1870 7237 0
-1880 7237 0
-1884 7237 0
-1886 7237 0
-1895 7237 0
-1896 7237 0
-1901 7237 0
-1905 7237 0
-1909 7237 0
-1915 7237 0
-1920 7237 0
-1921 7237 0
-1926 7237 0
-1934 7237 0
-1936 7237 0
-7231 -7229 0
-7233 -7229 0
-7235 -7229 0
-7237 -7229 0
-7231 -7237 0
-7233 -7235 0
-7233 -7237 0
-7235 -7237 0
-200 7239 0
-202 7239 0
7239 -219 0
-238 7239 0
-244 7239 0
-255 7239 0
-264 7239 0
-275 7239 0
7239 -278 0
7239 -285 0
-295 7239 0
-307 7239 0
-310 7239 0
-312 7239 0
-326 7239 0
-332 7239 0
7239 -341 0
7243 -1447 0
-7243 1398 1409 1501 1438 1504 1506 1480 1535 1511 1447 1455 1407 1401 1403 1394 1419 1461 1541 1529 1527 1421 1430 1396 1522 1487 1475 1472 1415 1424 1458 1495 1479 1426 1422 1503 1478 1493 1449 1533 1469 1466 1534 1411 1436 1456 1464 1416 1489 1413 1460 1528 1432 1481 1417 1526 1539 1462 1520 1450 1532 0
-1687 7245 0
7245 -1709 0
7247 -1843 0
-7247 1845 1790 1799 1868 1828 1826 1792 1931 1937 1807 1871 1885 1811 1851 1876 1805 1891 1889 1907 1794 1834 1930 1883 1817 1852 1854 1856 1857 1858 1860 1862 1865 1843 1877 1874 1820 1813 1815 1818 1846 1812 1875 1897 1832 1916 1803 1822 1899 1918 1922 1809 1923 1925 1924 1902 1900 1928 1929 1935 1797 0
-7245 -7239 -7247 0
-201 7249 0
-203 7249 0
-214 7249 0
-216 7249 0
-241 7249 0
-243 7249 0
-246 7249 0
-260 7249 0
-269 7249 0
-277 7249 0
-282 7249 0
-283 7249 0
-302 7249 0
-313 7249 0
-318 7249 0
-342 7249 0
-348 7249 0
-7249 201 292 297 313 226 246 237 214 212 218 269 348 282 302 245 251 277 304 308 283 252 260 300 318 258 289 291 298 205 249 247 220 199 288 210 206 316 279 216 208 303 322 273 327 239 321 241 320 211 243 233 203 224 329 337 343 314 231 323 342 0
-7250 0
-1197 7251 0
-1242 7251 0
-1256 7251 0
-1273 7251 0
-1284 7251 0
-1285 7251 0
-1287 7251 0
-1296 7251 0
-1298 7251 0
-1304 7251 0
-1310 7251 0
-1317 7251 0
-1319 7251 0
-7251 1233 1287 1204 1199 1278 1202 1241 1220 1207 1338 1229 1208 1201 1212 1197 1214 1195 1309 1235 1237 1227 1206 1344 1243 1245 1247 1222 1254 1248 1256 1269 1242 1239 1216 1279 1284 1265 1275 1288 1293 1294 1296 1298 1299 1210 1304 1273 1310 1312 1285 1316 1317 1318 1319 1323 1325 1333 1300 1339 1314 0
-7252 0
-1395 7253 0
-1400 7253 0
-1404 7253 0
-1405 7253 0
-1408 7253 0
-1410 7253 0
-1414 7253 0
-1418 7253 0
-1425 7253 0
-1427 7253 0
-1431 7253 0
-1435 7253 0
-1439 7253 0
-1440 7253 0
-1441 7253 0
-1452 7253 0
-1463 7253 0
-1482 7253 0
-1483 7253 0
-1494 7253 0
-1496 7253 0
-1502 7253 0
-1508 7253 0
-1510 7253 0
-1515 7253 0
-1517 7253 0
-1531 7253 0
1397 1395 1537 1507 1512 1431 1486 1393 1516 1542 1508 1523 1482 1521 1531 1425 1437 1514 1492 1408 1446 1467 1515 1439 1473 1420 1418 1494 1440 1476 1536 1483 1414 1498 1405 1402 1443 1435 1400 1471 1399 1485 1496 1502 1452 1491 -7253 1454 1412 1433 1427 1517 1463 1497 1477 1404 1441 1445 1406 1410 1510 0
-7254 0
-1593 7255 0
-1595 7255 0
-1597 7255 0
-1618 7255 0
-1639 7255 0
-1661 7255 0
-1669 7255 0
-1681 7255 0
-1683 7255 0
-1694 7255 0
-1696 7255 0
-1705 7255 0
-1708 7255 0
-7255 1623 1598 1680 1591 1661 1706 1608 1696 1602 1689 1690 1695 1665 1681 1694 1616 1714 1692 1629 1712 1671 1593 1669 1652 1595 1721 1674 1705 1635 1637 1715 1639 1625 1618 1633 1684 1631 1597 1603 1612 1644 1710 1643 1708 1650 1700 1606 1675 1683 1735 1604 1641 1740 1610 1600 1638 1729 1734 1719 1713 0
-7256 0
-1879 7257 0
-1881 7257 0
-7257 1806 1879 1827 1892 1881 1863 1890 1927 1869 1873 1933 1837 1906 1919 1795 1887 1893 1791 1793 1841 1888 1910 1835 1878 1932 1836 1833 1848 1839 1859 1802 1938 1867 1801 1804 1821 1872 1913 1882 1850 1800 1816 1810 1823 1894 1898 1798 1796 1808 1814 1842 1829 1831 1789 1912 1911 1917 1908 1903 1904 0
-7258 0
-7251 -7255 -7249 0
-7251 -7249 -7257 0
-7253 -7249 -7257 0
-7255 -7249 -7257 0
-7251 -7255 -7257 0
-7253 -7255 -7257 0
7249 7251 7255 7257 7254 7250 7256 7252 7258 0
7259 -201 0
7259 -214 0
7259 -277 0
7259 -285 0
-299 7259 0
-338 7259 0
-340 7259 0
-7259 201 239 206 318 287 199 275 228 218 269 220 292 313 348 251 264 332 243 245 249 277 207 266 209 222 212 208 281 285 289 291 316 293 295 297 298 299 301 303 279 217 309 223 304 203 214 320 322 326 327 328 329 307 334 337 338 340 342 343 237 0
-1218 7261 0
-1247 7261 0
-1283 7261 0
-1291 7261 0
-1323 7261 0
-1334 7261 0
7263 -1485 0
-7263 1395 1510 1498 1401 1507 1497 1516 1475 1443 1503 1537 1521 1393 1542 1526 1523 1528 1403 1514 1437 1522 1520 1536 1460 1493 1422 1485 1402 1473 1431 1487 1414 1458 1512 1408 1471 1412 1489 1483 1445 1486 1433 1469 1416 1481 1532 1400 1411 1534 1501 1479 1463 1397 1406 1495 1491 1531 1417 1492 1439 0
-1595 7265 0
-1601 7265 0
7265 -1620 0
7265 -1705 0
7267 -1879 0
7267 -1881 0
-7265 -7259 -7267 0
-7261 -7265 -7267 0
-205 7269 0
-210 7269 0
-211 7269 0
-216 7269 0
-224 7269 0
-226 7269 0
-231 7269 0
-233 7269 0
-241 7269 0
-246 7269 0
-247 7269 0
-252 7269 0
-254 7269 0
-258 7269 0
-260 7269 0
7269 -271 0
-273 7269 0
-280 7269 0
-282 7269 0
-283 7269 0
-288 7269 0
-290 7269 0
-300 7269 0
-302 7269 0
-305 7269 0
-308 7269 0
-311 7269 0
-314 7269 0
-321 7269 0
-323 7269 0
-7269 224 252 271 254 300 210 280 233 211 205 258 283 305 273 308 323 246 290 321 288 302 216 260 282 314 241 311 231 247 226 0
-1201 7271 0
-1206 7271 0
-1207 7271 0
-1212 7271 0
-1220 7271 0
-1222 7271 0
-1227 7271 0
-1229 7271 0
-1237 7271 0
-1242 7271 0
-1243 7271 0
-1248 7271 0
-1250 7271 0
-1254 7271 0
-1256 7271 0
-1269 7271 0
-1278 7271 0
-1279 7271 0
-1284 7271 0
-1296 7271 0
-1298 7271 0
-1304 7271 0
-1310 7271 0
-1317 7271 0
-1319 7271 0
-1399 7273 0
-1404 7273 0
-1405 7273 0
-1410 7273 0
-1418 7273 0
-1420 7273 0
-1425 7273 0
-1427 7273 0
-1435 7273 0
-1440 7273 0
-1441 7273 0
-1446 7273 0
-1448 7273 0
-1452 7273 0
-1454 7273 0
-1465 7273 0
-1467 7273 0
-1474 7273 0
-1476 7273 0
-1477 7273 0
-1482 7273 0
-1484 7273 0
-1494 7273 0
-1496 7273 0
-1499 7273 0
-1502 7273 0
-1508 7273 0
-1515 7273 0
-1517 7273 0
-7273 1452 1508 1484 1410 1399 1515 1448 1467 1505 1425 1476 1499 1474 1517 1446 1465 1420 1494 1427 1496 1454 1441 1405 1482 1440 1418 1404 1477 1435 1502 0
-1597 7275 0
-1602 7275 0
-1603 7275 0
-1608 7275 0
-1616 7275 0
-1618 7275 0
-1623 7275 0
-1625 7275 0
-1633 7275 0
-1638 7275 0
-1639 7275 0
-1644 7275 0
-1646 7275 0
-1650 7275 0
-1652 7275 0
7275 -1663 0
-1665 7275 0
7275 -1672 0
-1674 7275 0
-1675 7275 0
-1680 7275 0
-1682 7275 0
-1692 7275 0
-1694 7275 0
7275 -1697 0
-1700 7275 0
-1703 7275 0
-1706 7275 0
-1713 7275 0
-1715 7275 0
-1795 7277 0
-1800 7277 0
-1814 7277 0
-1823 7277 0
-1837 7277 0
-1842 7277 0
7277 -1844 0
-1850 7277 0
-1873 7277 0
-1878 7277 0
7277 -1880 0
-1890 7277 0
-1892 7277 0
-1898 7277 0
-1904 7277 0
-1911 7277 0
-1913 7277 0
-7271 -7269 0
-7273 -7269 0
-7275 -7269 0
-7277 -7269 0
-7271 -7277 0
-7273 -7275 0
-7273 -7277 0
-7275 -7277 0
-234 7279 0
-259 7279 0
-276 7279 0
-315 7279 0
-324 7279 0
-325 7279 0
-7279 263 312 229 310 339 235 221 268 234 341 347 230 253 272 294 325 236 240 255 296 257 219 227 256 225 261 262 306 265 213 250 259 270 232 317 204 242 200 202 248 284 274 335 276 278 319 346 267 315 331 333 286 336 215 324 344 345 330 244 238 0
-7280 0
-7282 0
-1394 7283 0
-1396 7283 0
-1398 7283 0
-1407 7283 0
-1409 7283 0
-1413 7283 0
-1415 7283 0
-1419 7283 0
-1421 7283 0
-1423 7283 0
-1424 7283 0
-1426 7283 0
-1428 7283 0
-1429 7283 0
-1430 7283 0
-1432 7283 0
-1434 7283 0
-1436 7283 0
-1438 7283 0
-1444 7283 0
-1447 7283 0
-1449 7283 0
-1450 7283 0
-1451 7283 0
-1453 7283 0
-1455 7283 0
-1456 7283 0
-1457 7283 0
-1459 7283 0
-1461 7283 0
-1462 7283 0
-1464 7283 0
-1466 7283 0
-1470 7283 0
-1490 7283 0
-1500 7283 0
-1504 7283 0
-1506 7283 0
-1509 7283 0
-1511 7283 0
-1513 7283 0
-1533 7283 0
-1539 7283 0
-7283 1398 1524 1529 1506 1539 1394 1447 1541 1509 1513 1472 1470 1438 1504 1519 1533 1527 1396 1525 1457 1468 1500 1430 1456 1436 1413 1407 1449 1442 1518 1511 1462 1426 1461 1429 1423 1478 1451 1466 1480 1450 1434 1428 1459 1421 1535 1444 1488 1432 1530 1409 1490 1464 1424 1453 1419 1538 1455 1540 1415 0
-7284 0
-1592 7285 0
-1594 7285 0
-1662 7285 0
-1664 7285 0
-1709 7285 0
-7285 1688 1668 1621 1670 1662 1704 1651 1619 1736 1657 1702 1627 1640 1648 1628 1666 1642 1739 1596 1630 1664 1655 1605 1622 1723 1678 1626 1636 1717 1725 1649 1594 1737 1711 1645 1728 1738 1634 1659 1592 1676 1611 1698 1624 1613 1722 1716 1607 1632 1660 1707 1653 1617 1686 1731 1733 1654 1727 1709 1647 0
-7286 0
-1843 7287 0
-7287 1884 1868 1790 1845 1855 1825 1809 1811 1792 1851 1876 1935 1926 1886 1805 1860 1828 1934 1819 1820 1830 1826 1815 1847 1849 1937 1914 1853 1794 1857 1858 1832 1838 1864 1866 1843 1874 1852 1902 1822 1803 1896 1862 1909 1834 1925 1817 1907 1846 1905 1923 1900 1840 1915 1920 1921 1929 1931 1936 1824 0
-7288 0
-7279 -7285 -7287 0
-7283 -7285 -7287 0
7279 7283 7285 7287 7284 7282 7286 7280 7288 0
-210 7289 0
-233 7289 0
-282 7289 0
-314 7289 0
-7289 204 312 221 339 246 210 310 247 226 347 231 302 341 200 300 286 213 260 227 225 219 242 308 288 268 321 272 232 256 241 267 261 270 252 244 273 278 238 262 282 283 284 215 314 236 216 253 335 323 230 317 333 258 255 233 224 205 345 211 202 0
-7290 0
-7292 0
-1396 7293 0
-1398 7293 0
-1399 7293 0
-1404 7293 0
-1409 7293 0
-1410 7293 0
-1413 7293 0
-1415 7293 0
-1419 7293 0
-1420 7293 0
-1421 7293 0
-1424 7293 0
-1425 7293 0
-1426 7293 0
-1430 7293 0
-1435 7293 0
-1436 7293 0
-1438 7293 0
-1440 7293 0
-1441 7293 0
-1446 7293 0
-1447 7293 0
-1449 7293 0
-1450 7293 0
-1454 7293 0
-1455 7293 0
-1462 7293 0
-1466 7293 0
-1467 7293 0
-1472 7293 0
-1476 7293 0
-1477 7293 0
-1478 7293 0
-1502 7293 0
-1508 7293 0
-1511 7293 0
-1517 7293 0
-1527 7293 0
-7293 1398 1476 1477 1447 1506 1504 1533 1535 1438 1466 1404 1449 1450 1452 1529 1425 1541 1461 1527 1508 1515 1409 1396 1462 1480 1399 1454 1539 1456 1464 1394 1511 1435 1432 1415 1413 1502 1455 1421 1427 1430 1419 1436 1496 1424 1494 1478 1426 1441 1440 1482 1446 1410 1517 1467 1420 1472 1407 1418 1405 0
-7294 0
-1592 7295 0
-1594 7295 0
-1662 7295 0
-1709 7295 0
-7295 1662 1594 1654 1652 1623 1694 1680 1704 1648 1634 1706 1624 1674 1619 1670 1702 1597 1602 1596 1622 1607 1647 1625 1676 1633 1739 1618 1644 1636 1692 1664 1678 1653 1715 1660 1725 1675 1617 1616 1628 1639 1592 1630 1611 1665 1709 1605 1700 1608 1645 1650 1713 1613 1603 1659 1727 1731 1733 1737 1638 0
-7296 0
-1843 7297 0
-7297 1845 1792 1795 1868 1890 1790 1828 1911 1811 1851 1907 1904 1837 1809 1931 1857 1805 1834 1929 1876 1800 1832 1831 1820 1902 1878 1826 1815 1823 1848 1937 1850 1816 1836 1858 1860 1862 1863 1843 1872 1821 1874 1852 1846 1900 1892 1817 1873 1898 1822 1806 1842 1794 1923 1814 1803 1913 1925 1801 1935 0
-7298 0
-7289 -7295 -7297 0
7289 7293 7295 7297 7294 7292 7296 7290 7298 0
7299 -201 0
-203 7299 0
7299 -214 0
-240 7299 0
-250 7299 0
7299 -257 0
-265 7299 0
-276 7299 0
7299 -277 0
7299 -294 0
7299 -296 0
7299 -313 0
7299 -330 0
-346 7299 0
7299 -348 0
-1231 7301 0
-1287 7301 0
-1288 7301 0
-1290 7301 0
-1292 7301 0
-1293 7301 0
-1294 7301 0
-1299 7301 0
-1302 7301 0
-1311 7301 0
-1312 7301 0
-1315 7301 0
-1316 7301 0
-1318 7301 0
-1320 7301 0
-1321 7301 0
-1323 7301 0
-1325 7301 0
-1326 7301 0
-1332 7301 0
-1333 7301 0
-1338 7301 0
-1339 7301 0
-1340 7301 0
-1342 7301 0
-1344 7301 0
-1393 7303 0
-1395 7303 0
-1397 7303 0
-1400 7303 0
-1402 7303 0
-1406 7303 0
-1408 7303 0
-1412 7303 0
-1414 7303 0
-1423 7303 0
-1428 7303 0
-1429 7303 0
-1431 7303 0
-1433 7303 0
-1434 7303 0
-1437 7303 0
-1439 7303 0
-1442 7303 0
-1443 7303 0
-1444 7303 0
-1445 7303 0
-1451 7303 0
-1453 7303 0
-1457 7303 0
-1459 7303 0
-1463 7303 0
-1468 7303 0
7303 -1470 0
-1471 7303 0
-1473 7303 0
-1483 7303 0
-1485 7303 0
-1486 7303 0
-1488 7303 0
-1490 7303 0
-1491 7303 0
-1492 7303 0
-1497 7303 0
-1498 7303 0
-1500 7303 0
-1507 7303 0
-1509 7303 0
-1510 7303 0
-1512 7303 0
-1513 7303 0
-1514 7303 0
-1516 7303 0
-1518 7303 0
-1519 7303 0
-1521 7303 0
-1523 7303 0
-1524 7303 0
-1525 7303 0
-1530 7303 0
-1531 7303 0
-1536 7303 0
-1537 7303 0
-1538 7303 0
-1540 7303 0
-1542 7303 0
-7303 1393 1492 1395 1470 1471 1485 1516 1514 1408 1531 1473 1490 1523 1468 1519 1540 1524 1443 1497 1445 1521 1500 1491 1437 1498 1510 1542 1439 1431 1509 1530 1507 1512 1536 1402 1414 1513 1423 1412 1406 1486 1444 1429 1433 1463 1457 1397 1451 1428 1488 1459 1400 1525 1442 1453 1483 1434 1537 1538 1518 0
7305 -1593 0
-1595 7305 0
7305 -1661 0
7305 -1686 0
7305 -1688 0
7305 -1705 0
7305 -1708 0
7305 -1710 0
-1717 7305 0
7307 -1879 0
7307 -1881 0
-7301 -7299 -7307 0
-7303 -7299 -7307 0
-7305 -7299 -7307 0
-7301 -7305 -7307 0
-7303 -7305 -7307 0
-207 7309 0
-209 7309 0
-217 7309 0
-222 7309 0
-223 7309 0
-228 7309 0
-264 7309 0
-266 7309 0
7309 -271 0
-275 7309 0
-285 7309 0
-287 7309 0
-293 7309 0
-295 7309 0
-299 7309 0
-301 7309 0
-305 7309 0
-307 7309 0
-309 7309 0
-311 7309 0
-326 7309 0
-328 7309 0
-332 7309 0
-334 7309 0
-338 7309 0
-340 7309 0
-1205 7311 0
-1250 7311 0
-1401 7313 0
-1403 7313 0
-1411 7313 0
-1416 7313 0
-1417 7313 0
-1422 7313 0
-1448 7313 0
-1458 7313 0
-1460 7313 0
-1465 7313 0
-1469 7313 0
-1474 7313 0
-1475 7313 0
-1479 7313 0
-1481 7313 0
-1484 7313 0
-1487 7313 0
-1489 7313 0
-1493 7313 0
-1495 7313 0
-1499 7313 0
-1501 7313 0
-1503 7313 0
-1520 7313 0
-1522 7313 0
-1526 7313 0
-1528 7313 0
-1532 7313 0
-1534 7313 0
-7313 1448 1505 1475 1401 1489 1474 1522 1534 1487 1532 1403 1520 1458 1503 1417 1495 1528 1479 1411 1484 1465 1416 1526 1501 1460 1481 1469 1493 1422 1499 0
-1599 7315 0
-1601 7315 0
-1609 7315 0
-1614 7315 0
-1615 7315 0
-1620 7315 0
-1656 7315 0
-1658 7315 0
7315 -1663 0
-1667 7315 0
-1672 7315 0
-1673 7315 0
-1677 7315 0
-1679 7315 0
-1682 7315 0
-1685 7315 0
-1687 7315 0
-1691 7315 0
-1693 7315 0
7315 -1697 0
-1699 7315 0
-1701 7315 0
-1703 7315 0
-1718 7315 0
-1720 7315 0
-1724 7315 0
-1726 7315 0
-1730 7315 0
-1732 7315 0
-7315 1703 1667 1697 1687 1699 1646 1685 1718 1693 1679 1658 1599 1609 1732 1663 1672 1601 1614 1720 1691 1677 1682 1656 1620 1701 1615 1673 1724 1726 1730 0
-1797 7317 0
-1799 7317 0
-1807 7317 0
-1813 7317 0
-1818 7317 0
7317 -1844 0
-1854 7317 0
-1856 7317 0
-1861 7317 0
-1865 7317 0
-1875 7317 0
7317 -1880 0
-1883 7317 0
-1885 7317 0
7317 -1889 0
-1891 7317 0
-1897 7317 0
-1899 7317 0
-1916 7317 0
-1918 7317 0
-1922 7317 0
-1924 7317 0
-1928 7317 0
-1930 7317 0
-7311 -7309 0
-7313 -7309 0
-7315 -7309 0
-7317 -7309 0
-7313 -7315 0
-7313 -7317 0
-7315 -7317 0
-198 7319 0
-427 7321 0
-433 7321 0
-492 7321 0
-504 7321 0
-509 7321 0
-585 7323 0
-1764 7325 0
-1782 7325 0
-7325 1769 1764 1775 1766 1773 1782 1757 1788 1755 1750 0
-1988 7327 0
-2011 7327 0
-7327 1999 1975 2055 2051 1974 1969 2059 2045 2084 2020 2076 2034 2070 2064 1994 2003 1990 2036 2011 1980 2086 1988 2065 2016 1997 2030 2014 2005 2071 2046 0
-7319 -7321 0
-7327 -7323 0
-157 7329 0
-158 7329 0
-159 7329 0
-161 7329 0
-162 7329 0
-193 7329 0
-194 7329 0
-7329 166 159 194 158 154 172 157 170 177 162 168 180 190 156 193 191 155 192 161 0
-7330 0
-398 7331 0
-400 7331 0
-428 7331 0
-430 7331 0
-434 7331 0
-436 7331 0
-440 7331 0
-442 7331 0
-454 7331 0
-459 7331 0
-460 7331 0
-462 7331 0
-464 7331 0
-465 7331 0
-466 7331 0
-468 7331 0
-470 7331 0
-473 7331 0
-476 7331 0
-479 7331 0
-491 7331 0
-493 7331 0
-497 7331 0
-499 7331 0
-505 7331 0
-507 7331 0
-508 7331 0
-510 7331 0
-515 7331 0
-532 7331 0
-7331 451 398 453 460 485 407 421 533 508 479 507 465 415 526 473 515 464 400 430 442 505 428 436 524 405 417 434 483 466 454 470 402 543 423 462 482 426 484 468 491 493 497 440 413 536 459 510 530 425 476 420 419 531 499 411 537 538 539 532 545 0
-7332 0
-589 7333 0
-7333 571 589 578 552 561 591 564 570 553 567 556 555 562 590 557 566 577 554 559 0
-7334 0
-1756 7335 0
-1758 7335 0
-1767 7335 0
-1776 7335 0
-1781 7335 0
-1784 7335 0
-7335 1783 1746 1763 1768 1780 1777 1744 1751 1776 1762 1774 1756 1781 1758 1745 1779 1754 1784 1767 0
-7336 0
-1957 7337 0
-1962 7337 0
-1963 7337 0
-1968 7337 0
-2025 7337 0
-2066 7337 0
-2072 7337 0
-2074 7337 0
-2078 7337 0
-2080 7337 0
-7338 0
-7331 -7333 -7329 0
-7335 -7333 -7329 0
-7337 -7333 -7329 0
-7337 -7331 -7335 0
7331 7329 7333 7335 7330 7334 7332 7336 7338 0
-7339 178 151 195 189 197 163 187 171 186 179 182 176 174 165 183 169 153 152 184 0
-7340 0
-7341 501 481 441 496 490 514 399 410 518 541 495 535 445 397 520 444 414 477 502 450 424 431 408 475 403 439 429 471 546 527 416 486 516 437 480 435 406 521 447 418 489 404 500 506 412 422 409 512 511 401 467 449 456 498 458 519 487 443 540 525 0
-7342 0
-7343 569 573 572 549 548 547 582 586 587 592 580 588 551 593 568 550 583 575 579 0
-7344 0
-1771 7345 0
-1772 7345 0
-7345 1770 1741 1760 1771 1778 1787 1786 1759 1772 1752 1747 1742 1765 1785 1743 1749 1761 1748 1753 0
-7346 0
-7347 2029 2043 1981 1950 1987 1989 2069 1939 1998 1943 2088 2060 2083 2022 1958 1945 1960 2082 2032 2061 2000 2048 2054 1956 1948 2042 1964 2063 1973 2013 2067 2044 2017 2058 1952 1985 1992 2053 2077 2037 1946 2028 1971 1977 2038 2023 2019 2031 1983 1941 2040 1951 1986 2009 1991 1979 1966 2062 1954 2056 0
-7348 0
7339 7341 7343 7345 7340 7344 7342 7346 7348 0
7339 7347 7345 7341 7344 7340 7346 7342 7348 0
7347 7339 7345 7343 7344 7342 7346 7340 7348 0
-151 7349 0
-152 7349 0
-153 7349 0
-155 7349 0
-179 7349 0
-7349 184 151 179 170 189 178 197 158 186 194 177 193 169 171 152 155 187 153 195 0
-7350 0
-397 7351 0
-401 7351 0
-404 7351 0
-405 7351 0
-406 7351 0
-410 7351 0
-412 7351 0
-415 7351 0
-418 7351 0
-420 7351 0
-426 7351 0
-477 7351 0
-525 7351 0
-526 7351 0
-527 7351 0
-530 7351 0
-532 7351 0
-535 7351 0
-536 7351 0
-540 7351 0
-541 7351 0
-546 7351 0
-7351 505 485 441 496 490 501 421 495 514 479 407 538 462 499 536 483 502 477 527 412 447 404 497 475 415 489 516 405 401 473 418 399 487 416 518 410 493 426 449 437 420 406 491 541 520 435 511 507 443 467 397 524 464 530 535 546 526 532 540 525 0
-7352 0
-7353 553 571 568 579 578 582 551 586 592 547 572 583 569 580 549 554 577 570 593 0
-7354 0
-1741 7355 0
-1771 7355 0
-1772 7355 0
-1786 7355 0
-7355 1776 1749 1759 1760 1771 1772 1787 1774 1780 1761 1770 1743 1781 1765 1786 1748 1767 1768 1741 0
-7356 0
-1952 7357 0
-1954 7357 0
-1977 7357 0
-1991 7357 0
-2006 7357 0
-2009 7357 0
-2021 7357 0
-2029 7357 0
-2032 7357 0
-2033 7357 0
-2047 7357 0
-2049 7357 0
-2053 7357 0
-2067 7357 0
-2068 7357 0
-7357 2037 2066 2083 2082 2043 2029 1939 1962 2069 2006 2060 1949 2056 2041 2072 2078 2074 1989 1948 2033 2021 1947 1954 2068 1958 2049 2088 2044 1960 1957 2038 2080 2058 2004 1952 2035 1983 2019 2015 2017 2053 2032 2039 2062 2027 2067 1943 2025 1977 1968 1941 1985 1991 2009 2031 1946 2077 1979 1963 2047 0
-7358 0
-7349 -7351 -7355 0
-7357 -7349 -7351 0
7349 7351 7353 7355 7350 7354 7352 7356 7358 0
7357 7349 7355 7351 7354 7350 7356 7352 7358 0
-163 7359 0
-164 7359 0
-165 7359 0
-174 7359 0
-175 7359 0
-176 7359 0
-182 7359 0
-183 7359 0
-7359 165 174 183 176 163 175 182 164 0
-7360 0
-408 7361 0
-469 7361 0
-7361 519 452 469 429 458 456 424 444 408 521 403 486 512 498 478 481 488 503 471 500 506 480 439 445 450 409 422 414 509 431 0
-7362 0
-548 7363 0
-575 7363 0
-7363 573 574 587 588 550 548 576 575 0
-7364 0
-1742 7365 0
-1747 7365 0
-1775 7365 0
-1778 7365 0
-1782 7365 0
-1785 7365 0
-7365 1775 1747 1782 1753 1785 1778 1742 1752 0
-7366 0
-1945 7367 0
-1950 7367 0
-1956 7367 0
-1971 7367 0
-1981 7367 0
-1987 7367 0
-2011 7367 0
-2030 7367 0
-2040 7367 0
-2051 7367 0
-2063 7367 0
-7367 1966 1950 2061 2011 1973 1994 2051 1987 1998 2000 2013 2020 2030 2022 2023 1964 2028 2063 1971 1951 2040 1956 2048 2042 1945 1981 2045 2054 1992 1986 0
-7368 0
-7361 -7359 0
-7363 -7359 0
-7365 -7359 0
-7367 -7359 0
-7361 -7365 0
-7363 -7365 0
-7367 -7363 0
7361 7359 7363 7365 7367 7364 7362 7366 7360 7368 0
7369 -159 0
-427 7371 0
-432 7371 0
-433 7371 0
-438 7371 0
-455 7371 0
-457 7371 0
-461 7371 0
-463 7371 0
-472 7371 0
-474 7371 0
-492 7371 0
-494 7371 0
-504 7371 0
-513 7371 0
7373 -589 0
7375 -1750 0
-1769 7375 0
-1773 7375 0
-1969 7377 0
-1974 7377 0
-1975 7377 0
-1980 7377 0
-2065 7377 0
-2071 7377 0
-2076 7377 0
-7371 -7373 -7369 0
-7373 -7375 -7369 0
-7377 -7373 -7369 0
-159 7379 0
-162 7379 0
-165 7379 0
-7379 191 157 172 161 159 154 176 165 162 182 192 180 174 168 183 166 163 156 190 0
-7380 0
-400 7381 0
-403 7381 0
-429 7381 0
-431 7381 0
-439 7381 0
-444 7381 0
-453 7381 0
-456 7381 0
-458 7381 0
-471 7381 0
-480 7381 0
-498 7381 0
-500 7381 0
-506 7381 0
-512 7381 0
-7381 453 402 424 460 400 533 444 481 419 398 429 439 440 519 537 423 508 458 442 451 428 468 515 431 450 425 403 486 456 422 454 521 459 417 436 408 500 445 409 531 466 476 482 434 413 411 414 465 484 510 480 506 470 512 430 471 498 539 545 543 0
-7382 0
-589 7383 0
-7383 550 564 552 589 591 561 548 573 587 555 567 562 575 588 559 590 566 557 556 0
-7384 0
-1747 7385 0
-1752 7385 0
-1777 7385 0
-1778 7385 0
-1779 7385 0
-1783 7385 0
-1785 7385 0
-7385 1756 1747 1754 1777 1784 1746 1783 1762 1778 1763 1744 1742 1785 1758 1779 1745 1751 1753 1752 0
-7386 0
-1940 7387 0
-1942 7387 0
-1944 7387 0
-1945 7387 0
-1950 7387 0
-1951 7387 0
-1953 7387 0
-1955 7387 0
-1956 7387 0
-1961 7387 0
-1964 7387 0
-1965 7387 0
-1966 7387 0
-1967 7387 0
-1970 7387 0
-1971 7387 0
-1972 7387 0
-1973 7387 0
-1976 7387 0
-1978 7387 0
-1981 7387 0
-1982 7387 0
-1986 7387 0
-1987 7387 0
-1992 7387 0
-1993 7387 0
-1995 7387 0
-1996 7387 0
-1998 7387 0
-2000 7387 0
-2001 7387 0
-2002 7387 0
-2007 7387 0
-2008 7387 0
-2010 7387 0
-2012 7387 0
-2013 7387 0
-2018 7387 0
-2022 7387 0
-2023 7387 0
-2024 7387 0
-2026 7387 0
-2028 7387 0
-2040 7387 0
-2042 7387 0
-2048 7387 0
-2050 7387 0
-2052 7387 0
-2054 7387 0
-2057 7387 0
-2061 7387 0
-2063 7387 0
-2073 7387 0
-2075 7387 0
-2079 7387 0
-2081 7387 0
-7387 2073 1950 1942 2057 1995 1967 1976 2022 2075 1966 2024 1981 1978 1964 2081 2023 2002 2061 1945 1996 2063 2026 1956 2001 1986 1953 1998 1993 1955 2028 2040 2042 2079 2085 2054 2052 2050 1992 2010 1987 2018 2013 1965 2087 1970 2000 1940 2048 1984 2012 2008 1973 1971 1951 1959 1961 2007 1972 1944 1982 0
-7388 0
-7381 -7383 -7379 0
-7381 -7385 -7379 0
-7387 -7381 -7379 0
-7383 -7385 -7379 0
-7387 -7383 -7379 0
7379 7381 7383 7385 7380 7384 7382 7386 7388 0
7379 7387 7383 7381 7380 7384 7386 7382 7388 0
7379 7387 7381 7385 7384 7380 7386 7382 7388 0
7387 7379 7383 7385 7384 7382 7386 7380 7388 0
-179 7389 0
-7389 184 151 178 173 181 171 179 189 198 196 185 169 197 195 186 160 187 188 167 153 152 0
-7390 0
-401 7391 0
-495 7391 0
-7391 443 406 433 441 514 404 523 410 412 399 449 520 516 490 438 501 502 446 418 448 416 455 487 461 427 477 472 474 475 432 447 489 467 492 397 496 495 437 401 504 435 534 463 511 517 518 513 522 494 525 527 528 529 457 535 540 541 542 544 546 0
-7392 0
-7393 565 558 568 579 563 584 585 551 594 581 583 580 572 547 569 549 586 582 592 593 560 0
-7394 0
-1743 7395 0
-1761 7395 0
-1788 7395 0
-7395 1759 1749 1760 1765 1764 1757 1787 1772 1773 1750 1771 1761 1755 1786 1770 1743 1748 1741 1766 1769 1788 0
-7396 0
-7397 2019 2082 1960 2038 2088 2086 1983 2029 1969 1985 2083 2060 2065 1979 2043 1954 1980 2017 1990 1948 2014 2059 2003 1941 1988 1999 1991 2053 1974 2032 2005 1997 1939 2034 1975 2037 2036 1946 2044 2046 1977 2055 1958 2058 1989 2056 2062 2064 2071 2031 1943 2070 2069 2076 2077 2009 1952 2084 2016 2067 0
-7398 0
-7389 -7391 -7395 0
7391 7389 7393 7395 7390 7394 7392 7396 7398 0
7397 7391 7393 7389 7390 7394 7396 7392 7398 0
7399 -158 0
7399 -193 0
-407 7401 0
-421 7401 0
-1780 7405 0
-1781 7405 0
-1782 7405 0
-1947 7407 0
-1968 7407 0
-1994 7407 0
-2020 7407 0
-2027 7407 0
-2045 7407 0
-7407 2066 2051 2072 2080 1947 1957 1968 2020 2006 2035 2025 2068 1963 2078 2015 2041 1994 2049 2074 2021 1949 2033 2030 2027 2039 2045 1962 2004 2011 2047 0
-7401 -7399 0
-7405 -7399 0
-7407 -7401 0
-428 7409 0
-431 7409 0
-434 7409 0
7409 -437 0
-456 7409 0
-460 7409 0
-471 7409 0
7409 -502 0
-7409 543 437 477 495 502 453 445 518 508 533 460 487 428 431 473 524 541 530 505 527 456 462 512 493 447 434 471 454 470 521 0
-1443 7413 0
-1483 7413 0
-1504 7413 0
-1517 7413 0
-7413 1469 1498 1424 1529 1473 1504 1483 1491 1539 1449 1537 1450 1433 1430 1514 1443 1466 1441 1427 1456 1523 1452 1520 1526 1517 1467 1489 1501 1458 1508 0
-1761 7415 0
-1973 7417 0
-1976 7417 0
-1979 7417 0
-1987 7417 0
-1989 7417 0
-1996 7417 0
-1998 7417 0
-2002 7417 0
-2004 7417 0
-2012 7417 0
-2015 7417 0
-2029 7417 0
-2035 7417 0
-2044 7417 0
-2047 7417 0
-2050 7417 0
-2063 7417 0
-2066 7417 0
-2069 7417 0
-2085 7417 0
-7417 2029 2050 2069 2044 2066 2072 2019 2012 1973 2063 2075 2004 2083 2060 1979 2054 1998 2047 2013 1989 1987 1995 2035 1976 1970 2037 1996 2085 2015 2002 0
-7413 -7409 0
-7415 -7409 0
-7417 -7409 0
-7417 -7415 0
-401 7419 0
7419 -402 0
7419 -455 0
-461 7419 0
7419 -463 0
-7419 469 399 435 534 537 425 458 402 480 481 496 433 419 474 461 544 455 426 490 439 429 424 498 422 416 427 529 464 511 463 408 420 516 466 475 535 504 484 486 467 523 441 401 406 412 418 506 492 451 452 465 414 546 509 531 525 483 532 540 538 0
-1408 7423 0
-7423 1410 1507 1463 1397 1470 1527 1460 1500 1437 1492 1423 1465 1459 1457 1505 1533 1431 1530 1420 1422 1398 1395 1477 1542 1521 1451 1418 1512 1540 1461 1488 1531 1519 1415 1416 1471 1425 1486 1462 1528 1408 1412 1479 1476 1480 1502 1402 1429 1454 1421 1534 1404 1482 1435 1494 1448 1525 1447 1536 1414 0
-1747 7425 0
-7425 1756 1748 1759 1760 1786 1757 1787 1765 1782 1773 1780 1778 1750 1777 1749 1747 1771 1752 1766 0
7429 -398 0
7429 -400 0
-1394 7433 0
-1403 7433 0
-1409 7433 0
-1419 7433 0
-1426 7433 0
-1432 7433 0
-1455 7433 0
-1475 7433 0
-1487 7433 0
-1495 7433 0
-1503 7433 0
-7433 1393 1506 1510 1518 1475 1394 1400 1499 1455 1436 1428 1474 1426 1438 1419 1495 1413 1401 1432 1490 1532 1541 1516 1472 1515 1478 1405 1484 1407 1399 1503 1446 1496 1411 1538 1535 1409 1511 1445 1487 1513 1524 1509 1406 1396 1493 1481 1444 1497 1468 1464 1417 1485 1440 1453 1442 1434 1439 1403 1522 0
7435 -1784 0
-1939 7437 0
7437 -1940 0
-1952 7437 0
-1978 7437 0
-1986 7437 0
-1990 7437 0
-1992 7437 0
-2010 7437 0
-2018 7437 0
-2020 7437 0
-2031 7437 0
-2062 7437 0
-2084 7437 0
-7437 1985 2049 1942 2043 2031 1955 1999 2056 1974 2030 2087 2078 1959 1949 1953 2081 1991 1957 1986 2045 1940 2018 2041 1946 1965 2059 2010 1947 2052 2042 1951 2036 2062 2061 2020 2057 1978 2064 2024 2027 1972 1952 1980 1963 1982 2014 2070 1945 2039 1984 2001 2084 1992 2021 1990 1939 2055 1988 2068 2033 0
-7435 -7437 -7429 0
-1402 7443 0
-1405 7443 0
-1432 7443 0
-1438 7443 0
-1440 7443 0
-1464 7443 0
-1487 7443 0
-1506 7443 0
-1511 7443 0
-1535 7443 0
-7443 1393 1506 1396 1486 1527 1402 1492 1500 1394 1490 1470 1541 1472 1484 1421 1482 1474 1407 1510 1401 1524 1496 1535 1476 1444 1459 1519 1438 1446 1502 1412 1487 1413 1533 1531 1493 1418 1485 1480 1522 1513 1461 1499 1515 1525 1511 1405 1415 1494 1432 1434 1404 1411 1521 1464 1399 1532 1488 1538 1440 0
7447 -1939 0
7447 -1940 0
7447 -2087 0
-7447 2031 1942 1950 2081 1953 1959 1940 2073 1967 1992 2028 1958 2042 2038 2056 1964 2077 2059 1990 2039 2032 2036 1957 1980 2078 2057 2068 2065 2030 2087 2010 2034 1948 2040 1986 2007 2061 2071 2018 1978 2020 2052 2016 1939 2045 2026 2048 2033 1951 1984 2070 2046 2079 1947 2084 2067 1961 1945 2005 2022 0
-443 7449 0
7449 -502 0
7455 -1744 0
-7455 1772 1744 1781 1779 1788 1755 1741 1754 0
-1946 7457 0
-1949 7457 0
-1952 7457 0
-1955 7457 0
-1963 7457 0
-1972 7457 0
-1974 7457 0
-1982 7457 0
-1985 7457 0
-1988 7457 0
-1991 7457 0
-1995 7457 0
-1999 7457 0
-2001 7457 0
-2019 7457 0
-2027 7457 0
7457 -2029 0
-2041 7457 0
7457 -2043 0
-2044 7457 0
-2050 7457 0
-2062 7457 0
-2064 7457 0
-7457 1972 1955 2019 2029 2043 1995 2062 1963 1946 1965 2050 1999 2021 2064 2055 1952 2001 1982 2049 1991 1985 2027 2024 1949 2012 2041 1974 2014 2044 1988 0
-7449 -7457 0
-1435 7463 0
-1441 7463 0
-1462 7463 0
7463 -1512 0
-7463 1398 1537 1507 1512 1422 1414 1397 1423 1542 1505 1416 1540 1523 1448 1437 1424 1528 1491 1408 1425 1395 1435 1427 1467 1451 1450 1469 1457 1460 1536 1520 1477 1501 1479 1526 1465 1462 1514 1454 1471 1458 1530 1534 1529 1410 1456 1463 1517 1489 1420 1447 1433 1431 1429 1508 1452 1441 1430 1539 1443 0
-1406 7473 0
-1409 7473 0
-1410 7473 0
-1447 7473 0
-1455 7473 0
-1460 7473 0
-1475 7473 0
-1505 7473 0
-1516 7473 0
-7473 1398 1410 1475 1468 1462 1397 1536 1471 1542 1419 1540 1425 1455 1479 1457 1423 1428 1516 1445 1406 1518 1437 1422 1465 1454 1436 1463 1395 1426 1512 1528 1420 1460 1477 1478 1409 1448 1503 1507 1414 1497 1534 1495 1509 1400 1431 1505 1429 1530 1451 1481 1408 1447 1403 1417 1442 1416 1453 1435 1439 0
7477 -1954 0
-1969 7477 0
-1983 7477 0
-1994 7477 0
-1997 7477 0
-1999 7477 0
7477 -2006 0
-2009 7477 0
-2017 7477 0
7477 -2021 0
7477 -2053 0
-7477 1994 2043 1972 1955 1943 2058 1985 2003 1944 1941 2023 2062 1965 1968 2088 2086 2017 1956 1949 1962 1963 2053 2049 1954 2074 1982 1952 2064 1974 1977 2001 2000 1971 1999 1991 2008 1975 2076 2014 2080 1960 1988 2024 2025 2027 2011 1946 1969 2041 2006 2055 2082 2021 1983 1997 2051 2009 1966 1981 1993 0
-398 7479 0
-400 7479 0
7485 -1784 0
-1989 7487 0
-2069 7487 0
-7487 -7485 -7479 0
-1415 7493 0
-7493 1449 1504 1470 1473 1402 1492 1466 1502 1459 1525 1418 1519 1527 1461 1533 1412 1482 1521 1488 1486 1483 1476 1500 1404 1494 1480 1415 1531 1421 1498 0
-171 7499 0
-176 7499 0
-179 7499 0
-186 7499 0
-189 7499 0
-192 7499 0
-7499 189 186 165 162 179 171 192 168 176 0
-230 7501 0
-233 7501 0
-236 7501 0
-239 7501 0
-247 7501 0
-249 7501 0
-255 7501 0
-256 7501 0
-258 7501 0
-262 7501 0
-264 7501 0
-272 7501 0
-273 7501 0
-275 7501 0
-279 7501 0
-289 7501 0
-295 7501 0
-297 7501 0
-304 7501 0
-307 7501 0
-310 7501 0
-314 7501 0
-320 7501 0
-323 7501 0
-326 7501 0
-329 7501 0
-332 7501 0
-335 7501 0
-343 7501 0
-345 7501 0
-7501 247 335 304 310 297 230 289 233 262 273 275 239 279 326 264 332 343 272 249 255 323 295 314 256 329 345 307 236 258 320 0
-557 7503 0
-561 7503 0
-562 7503 0
-569 7503 0
-570 7503 0
-577 7503 0
-583 7503 0
7503 -589 0
-1622 7505 0
-1625 7505 0
-1628 7505 0
-1631 7505 0
-1639 7505 0
-1641 7505 0
-1647 7505 0
-1648 7505 0
-1650 7505 0
-1654 7505 0
-1656 7505 0
-1664 7505 0
-1665 7505 0
-1667 7505 0
-1671 7505 0
-1681 7505 0
-1687 7505 0
-1689 7505 0
-1696 7505 0
-1699 7505 0
-1702 7505 0
-1706 7505 0
-1715 7505 0
-1718 7505 0
-1721 7505 0
-1724 7505 0
-1727 7505 0
-1735 7505 0
-1737 7505 0
-7505 1689 1664 1696 1625 1706 1622 1737 1656 1687 1735 1654 1699 1631 1712 1650 1721 1648 1667 1628 1671 1715 1718 1647 1727 1665 1681 1724 1702 1639 1641 0
-1837 7507 0
-1839 7507 0
-1845 7507 0
-1846 7507 0
-1852 7507 0
-1854 7507 0
-1865 7507 0
-1879 7507 0
-1916 7507 0
-7507 1933 1879 1885 1845 1900 1897 1823 1839 1837 1846 1854 1826 1913 1862 1852 1869 1820 1887 1919 1865 1935 1894 1829 1922 1863 1916 1925 1848 1904 1910 0
-7501 -7499 0
-7499 -7503 0
-7505 -7499 0
-7499 -7507 0
-7501 -7503 0
-7501 -7505 0
-7501 -7507 0
-7505 -7503 0
-7507 -7503 0
-7505 -7507 0
-7509 0
-7510 0
-201 7511 0
-208 7511 0
-210 7511 0
-214 7511 0
-243 7511 0
-271 7511 0
-277 7511 0
-286 7511 0
-300 7511 0
-325 7511 0
-327 7511 0
-339 7511 0
-342 7511 0
-348 7511 0
-7511 201 306 263 271 237 346 257 266 313 228 292 286 348 285 260 253 229 265 339 325 226 235 222 300 221 268 241 283 294 267 227 269 331 282 333 214 243 254 224 210 298 288 220 204 311 231 277 203 327 308 216 334 336 337 208 340 318 218 342 276 0
-7512 0
-547 7513 0
-548 7513 0
-550 7513 0
-551 7513 0
-552 7513 0
-553 7513 0
-555 7513 0
-564 7513 0
-565 7513 0
-566 7513 0
-567 7513 0
-572 7513 0
-573 7513 0
-574 7513 0
-575 7513 0
7513 -576 0
-578 7513 0
-579 7513 0
-581 7513 0
-582 7513 0
-584 7513 0
-585 7513 0
-586 7513 0
7513 -587 0
-588 7513 0
-590 7513 0
-591 7513 0
-592 7513 0
-7514 0
-1593 7515 0
-1646 7515 0
-1657 7515 0
-1663 7515 0
-1669 7515 0
-1680 7515 0
-1686 7515 0
-1692 7515 0
-1703 7515 0
-1710 7515 0
-1717 7515 0
-1719 7515 0
-1723 7515 0
-1725 7515 0
-1729 7515 0
-7515 1705 1619 1645 1668 1649 1680 1738 1616 1657 1703 1661 1692 1629 1614 1658 1678 1690 1633 1700 1686 1608 1652 1596 1602 1623 1621 1659 1675 1618 1610 1723 1669 1710 1613 1674 1635 1677 1600 1620 1593 1655 1627 1719 1606 1698 1725 1612 1684 1646 1660 1663 1729 1740 1595 1726 1717 1731 1732 1734 1728 0
-7516 0
-1793 7517 0
-1794 7517 0
-1816 7517 0
-1818 7517 0
-1819 7517 0
-1821 7517 0
-1825 7517 0
-1833 7517 0
-1843 7517 0
-1844 7517 0
-1858 7517 0
-1859 7517 0
-1876 7517 0
-1878 7517 0
-1901 7517 0
-1903 7517 0
-1908 7517 0
-1924 7517 0
-1926 7517 0
-1930 7517 0
-1932 7517 0
-7517 1882 1827 1872 1903 1929 1804 1938 1936 1793 1808 1794 1800 1816 1811 1850 1923 1926 1932 1861 1844 1873 1818 1847 1884 1853 1908 1856 1791 1858 1825 1831 1866 1867 1814 1924 1875 1876 1817 1821 1798 1888 1890 1896 1857 1898 1833 1812 1859 1819 1878 1917 1855 1806 1810 1915 1921 1901 1843 1927 1930 0
-7518 0
-7517 -7513 -7511 0
-7515 -7517 -7511 0
-7515 -7517 -7513 0
7515 7511 7517 7512 7514 7510 7516 7509 7518 0
-151 7519 0
-152 7519 0
-153 7519 0
-154 7519 0
-155 7519 0
-156 7519 0
-157 7519 0
-158 7519 0
-159 7519 0
-160 7519 0
-161 7519 0
-163 7519 0
-164 7519 0
-166 7519 0
-167 7519 0
-169 7519 0
-170 7519 0
-174 7519 0
-175 7519 0
-177 7519 0
-178 7519 0
-184 7519 0
-185 7519 0
-187 7519 0
-188 7519 0
-191 7519 0
-197 7519 0
-198 7519 0
-7519 184 159 174 169 177 185 178 151 160 161 158 181 197 172 198 153 157 194 175 191 167 193 164 182 187 188 170 156 196 166 195 154 152 155 173 190 180 163 183 0
-7520 0
-200 7521 0
-202 7521 0
-219 7521 0
-223 7521 0
-232 7521 0
-234 7521 0
-238 7521 0
-244 7521 0
-245 7521 0
-270 7521 0
-278 7521 0
-301 7521 0
-303 7521 0
-305 7521 0
-309 7521 0
-312 7521 0
-315 7521 0
-317 7521 0
-341 7521 0
-7521 200 312 206 299 232 244 302 199 213 209 212 217 238 347 287 341 234 211 274 242 270 245 305 248 250 225 252 259 215 246 278 219 240 281 284 290 261 293 296 207 301 291 303 251 309 280 315 205 316 317 319 322 321 324 202 328 330 338 344 223 0
-7522 0
-7523 0
-7524 0
-1591 7525 0
-1592 7525 0
-1594 7525 0
-1599 7525 0
-1601 7525 0
-1603 7525 0
-1605 7525 0
-1609 7525 0
-1615 7525 0
-1617 7525 0
-1626 7525 0
-1634 7525 0
-1640 7525 0
-1642 7525 0
-1651 7525 0
-1662 7525 0
-1672 7525 0
-1679 7525 0
-1682 7525 0
-1683 7525 0
-1693 7525 0
-1695 7525 0
-1697 7525 0
-1708 7525 0
-1709 7525 0
-1714 7525 0
-1716 7525 0
-1733 7525 0
-1739 7525 0
-7525 1704 1670 1688 1673 1697 1638 1651 1682 1683 1695 1644 1691 1632 1643 1592 1722 1653 1642 1676 1685 1599 1714 1679 1640 1626 1716 1709 1630 1666 1609 1591 1604 1739 1594 1624 1603 1611 1605 1662 1713 1617 1634 1693 1601 1597 1615 1636 1707 1598 1708 1711 1730 1701 1694 1672 1607 1720 1733 1637 1736 0
-7526 0
-1880 7527 0
-1881 7527 0
-7527 1880 1792 1881 1813 1799 1889 1891 1870 1871 1905 1795 1902 1937 1874 1877 1934 1914 1807 1912 1928 1931 1815 1840 1789 1920 1864 1835 1851 1849 1860 1909 1790 1842 1838 1832 1906 1911 1805 1892 1886 1841 1883 1824 1809 1895 1822 1802 1796 1868 1803 1828 1830 1836 1834 1918 1797 1893 1899 1801 1907 0
-7528 0
-7521 -7525 -7519 0
-7521 -7527 -7519 0
-7525 -7527 -7519 0
-7521 -7525 -7527 0
7525 7519 7527 7523 7524 7520 7526 7522 7528 0
7521 7525 7527 7523 7524 7520 7526 7522 7528 0
-153 7529 0
-156 7529 0
-159 7529 0
-172 7529 0
-173 7529 0
-184 7529 0
-185 7529 0
-187 7529 0
-188 7529 0
-190 7529 0
-191 7529 0
-7529 184 159 173 153 187 190 185 191 180 181 182 188 156 172 183 0
-7530 0
-202 7531 0
-210 7531 0
-224 7531 0
-265 7531 0
-291 7531 0
-296 7531 0
-305 7531 0
-306 7531 0
-308 7531 0
-341 7531 0
-7531 224 299 312 302 327 341 199 221 306 200 294 267 217 252 317 205 325 290 286 240 265 298 347 305 330 300 319 293 337 280 244 321 246 227 292 210 218 282 211 278 270 276 338 207 219 316 328 308 331 291 213 250 208 288 339 238 202 296 344 333 0
-7532 0
-547 7533 0
-552 7533 0
-555 7533 0
-575 7533 0
-578 7533 0
-584 7533 0
-587 7533 0
-591 7533 0
-7533 547 591 573 567 581 582 584 553 590 575 578 576 555 550 565 552 566 579 587 548 586 574 585 588 0
-7534 0
-1672 7535 0
-1683 7535 0
-1684 7535 0
-1690 7535 0
-1704 7535 0
-1708 7535 0
-1709 7535 0
-1719 7535 0
-1725 7535 0
-1729 7535 0
-1731 7535 0
-1733 7535 0
-1739 7535 0
-7535 1688 1670 1680 1638 1697 1704 1619 1592 1698 1668 1691 1602 1685 1659 1709 1736 1717 1672 1731 1683 1591 1692 1603 1690 1708 1597 1616 1657 1739 1644 1594 1611 1720 1632 1682 1686 1719 1694 1722 1636 1609 1605 1662 1674 1642 1610 1711 1713 1613 1600 1730 1700 1723 1684 1725 1630 1729 1733 1678 1599 0
-7536 0
-1795 7537 0
-1800 7537 0
-1842 7537 0
-1872 7537 0
-1880 7537 0
-1881 7537 0
-1882 7537 0
-1884 7537 0
-1917 7537 0
-7537 1872 1789 1881 1792 1889 1795 1855 1817 1937 1880 1911 1876 1929 1811 1920 1909 1917 1842 1931 1866 1934 1878 1928 1857 1927 1923 1896 1870 1834 1860 1868 1906 1882 1814 1888 1808 1890 1800 1828 1830 1797 1803 1898 1883 1807 1884 1840 1836 1907 1886 1921 1895 1790 1801 1918 1892 1915 1902 1809 1798 0
-7538 0
-7533 -7531 -7529 0
-7531 -7537 -7529 0
-7533 -7537 -7529 0
-7533 -7535 -7531 0
-7533 -7537 -7531 0
7531 7535 7529 7537 7534 7530 7536 7532 7538 0
7533 7535 7529 7537 7534 7532 7536 7530 7538 0
-7539 0
-7540 0
-206 7541 0
-209 7541 0
-212 7541 0
-215 7541 0
-223 7541 0
-225 7541 0
-232 7541 0
-234 7541 0
-242 7541 0
-245 7541 0
-248 7541 0
-251 7541 0
-255 7541 0
-259 7541 0
-261 7541 0
-272 7541 0
-274 7541 0
-279 7541 0
-281 7541 0
-284 7541 0
-287 7541 0
-289 7541 0
-301 7541 0
-303 7541 0
-304 7541 0
-309 7541 0
-310 7541 0
-315 7541 0
-322 7541 0
-324 7541 0
-7541 206 309 225 310 322 248 287 261 232 245 251 234 223 259 324 242 212 279 281 274 289 301 303 272 284 215 255 315 304 209 0
-7542 0
-549 7543 0
-551 7543 0
-554 7543 0
-556 7543 0
-557 7543 0
-558 7543 0
-559 7543 0
-560 7543 0
-561 7543 0
-562 7543 0
-563 7543 0
-564 7543 0
-568 7543 0
-569 7543 0
-570 7543 0
-571 7543 0
-572 7543 0
-577 7543 0
-580 7543 0
-583 7543 0
-589 7543 0
-592 7543 0
-593 7543 0
-594 7543 0
-7543 571 589 558 583 562 564 549 557 594 572 556 560 561 563 554 568 577 559 580 551 592 569 593 570 0
-7544 0
-1598 7545 0
-1601 7545 0
-1604 7545 0
-1607 7545 0
-1615 7545 0
-1617 7545 0
-1624 7545 0
-1626 7545 0
-1634 7545 0
-1637 7545 0
-1640 7545 0
-1643 7545 0
-1647 7545 0
-1651 7545 0
-1653 7545 0
-1666 7545 0
-1671 7545 0
-1673 7545 0
-1676 7545 0
-1679 7545 0
-1681 7545 0
-1693 7545 0
-1695 7545 0
-1696 7545 0
-1701 7545 0
-1702 7545 0
-1707 7545 0
-1714 7545 0
-1716 7545 0
-7545 1634 1598 1651 1681 1702 1701 1676 1624 1615 1696 1693 1673 1607 1679 1643 1640 1666 1626 1647 1637 1604 1671 1714 1695 1601 1716 1653 1707 1664 1617 0
-7546 0
-1796 7547 0
-1799 7547 0
-1813 7547 0
-1815 7547 0
-1822 7547 0
-1824 7547 0
-1832 7547 0
-1835 7547 0
-1838 7547 0
-1841 7547 0
-1845 7547 0
-1862 7547 0
-1864 7547 0
-1869 7547 0
-1871 7547 0
-1874 7547 0
-1877 7547 0
-1879 7547 0
-1891 7547 0
-1893 7547 0
-1894 7547 0
-1899 7547 0
-1900 7547 0
-1905 7547 0
-7547 1879 1845 1796 1914 1802 1899 1871 1813 1851 1900 1874 1849 1869 1832 1905 1877 1893 1912 1835 1841 1862 1815 1864 1838 1824 1894 1799 1891 1822 1805 0
-7548 0
-7541 -7543 0
-7541 -7545 0
-7541 -7547 0
-7545 -7543 0
-7547 -7543 0
-7545 -7547 0
7543 7541 7545 7547 7540 7544 7539 7546 7542 7548 0
-152 7549 0
-154 7549 0
-155 7549 0
-157 7549 0
-158 7549 0
-160 7549 0
-161 7549 0
-162 7549 0
-163 7549 0
-164 7549 0
-165 7549 0
-166 7549 0
-167 7549 0
-168 7549 0
-169 7549 0
-174 7549 0
-175 7549 0
-176 7549 0
-177 7549 0
-178 7549 0
-179 7549 0
-186 7549 0
-189 7549 0
-192 7549 0
-193 7549 0
-194 7549 0
-195 7549 0
-196 7549 0
-197 7549 0
-198 7549 0
-7549 167 152 198 151 154 179 157 178 186 194 176 175 177 166 192 160 161 165 189 174 162 171 193 195 169 158 168 170 196 164 155 163 197 0
-7550 0
-201 7551 0
-203 7551 0
-214 7551 0
-220 7551 0
-233 7551 0
-237 7551 0
-243 7551 0
-247 7551 0
-249 7551 0
-256 7551 0
-269 7551 0
-271 7551 0
-273 7551 0
-275 7551 0
-277 7551 0
-314 7551 0
-318 7551 0
-320 7551 0
-326 7551 0
-329 7551 0
-335 7551 0
-342 7551 0
-343 7551 0
-348 7551 0
-7551 201 237 273 271 228 243 348 236 229 257 214 239 277 335 253 258 231 262 260 283 203 235 269 222 340 268 254 263 256 297 249 329 220 241 275 343 247 264 295 266 307 311 313 314 318 320 323 233 226 285 334 230 336 326 332 204 345 216 346 342 0
-7552 0
-7553 0
-7554 0
-1593 7555 0
-1595 7555 0
-1622 7555 0
-1625 7555 0
-1633 7555 0
-1639 7555 0
-1646 7555 0
-1648 7555 0
-1650 7555 0
-1654 7555 0
-1656 7555 0
-1660 7555 0
-1669 7555 0
-1687 7555 0
-1689 7555 0
-1703 7555 0
-1710 7555 0
-1712 7555 0
-1715 7555 0
-1718 7555 0
-7555 1740 1606 1689 1649 1705 1718 1645 1703 1687 1665 1648 1596 1654 1658 1724 1706 1712 1629 1628 1639 1652 1622 1655 1612 1593 1677 1618 1635 1641 1656 1631 1650 1663 1608 1621 1623 1710 1661 1660 1620 1669 1699 1625 1627 1721 1727 1734 1633 1595 1646 1726 1675 1667 1735 1732 1715 1737 1728 1738 1614 0
-7556 0
-1820 7557 0
-1826 7557 0
-1829 7557 0
-1839 7557 0
-1843 7557 0
-1844 7557 0
-1858 7557 0
-1859 7557 0
-1867 7557 0
-7557 1791 1853 1793 1821 1903 1829 1839 1887 1820 1852 1938 1846 1913 1810 1826 1932 1850 1935 1823 1806 1804 1856 1816 1847 1848 1837 1818 1844 1833 1861 1858 1859 1825 1863 1865 1867 1794 1875 1812 1908 1897 1933 1901 1904 1916 1831 1854 1873 1827 1922 1924 1910 1926 1925 1843 1919 1930 1819 1936 1885 0
-7558 0
-7551 -7549 -7555 0
-7549 -7557 -7551 0
-7549 -7557 -7555 0
-7555 -7557 -7551 0
7549 7551 7555 7552 7553 7554 7550 7556 7558 0
7549 7557 7555 7553 7554 7550 7556 7552 7558 0
7557 7551 7555 7553 7554 7550 7556 7552 7558 0
7559 -152 0
7559 -155 0
7559 -161 0
7559 -163 0
7559 -166 0
7559 -167 0
-170 7559 0
7559 -174 0
7559 -175 0
7559 -177 0
7559 -178 0
7559 -194 0
7559 -195 0
7559 -197 0
7559 -198 0
-7560 0
-212 7561 0
-232 7561 0
-242 7561 0
-7561 206 322 214 220 271 287 228 223 274 216 251 203 346 226 215 229 257 209 234 222 253 231 242 243 245 212 235 277 254 266 259 260 261 263 241 268 269 232 237 225 281 283 284 285 301 303 201 311 313 315 318 248 324 309 336 340 342 334 348 204 0
-7562 0
-551 7563 0
-556 7563 0
-559 7563 0
-560 7563 0
-564 7563 0
-568 7563 0
-571 7563 0
-592 7563 0
-593 7563 0
-594 7563 0
-7563 549 556 571 558 568 563 572 593 564 551 560 594 592 554 559 0
-7564 0
-1593 7565 0
-1595 7565 0
-1596 7565 0
-1601 7565 0
-1618 7565 0
-1620 7565 0
-1621 7565 0
-1623 7565 0
-1653 7565 0
-1660 7565 0
-1676 7565 0
-1679 7565 0
-1693 7565 0
-1703 7565 0
-1705 7565 0
-1716 7565 0
-7565 1710 1598 1640 1649 1645 1701 1653 1634 1673 1658 1703 1740 1624 1705 1643 1627 1695 1620 1716 1621 1651 1623 1608 1637 1606 1655 1676 1663 1596 1626 1607 1615 1601 1652 1635 1714 1618 1726 1593 1629 1604 1728 1612 1677 1617 1669 1679 1693 1614 1675 1633 1661 1707 1734 1646 1666 1660 1732 1595 1738 0
-7566 0
-1802 7567 0
-1805 7567 0
-1843 7567 0
-1844 7567 0
-7567 1791 1871 1802 1873 1903 1793 1861 1851 1850 1810 1938 1796 1844 1905 1926 1908 1914 1932 1806 1825 1827 1804 1838 1891 1824 1822 1831 1815 1847 1849 1818 1924 1853 1799 1858 1859 1856 1864 1867 1841 1794 1874 1875 1877 1819 1893 1816 1813 1833 1899 1812 1805 1821 1901 1843 1930 1835 1912 1936 1832 0
-7568 0
-7561 -7559 -7565 0
-7563 -7565 -7559 0
-7563 -7559 -7567 0
-7559 -7567 -7565 0
7561 7565 7563 7567 7564 7562 7566 7560 7568 0
-7569 0
-7570 0
-202 7571 0
-219 7571 0
-233 7571 0
-238 7571 0
-239 7571 0
-247 7571 0
-249 7571 0
-256 7571 0
-273 7571 0
-275 7571 0
-291 7571 0
-296 7571 0
-297 7571 0
-305 7571 0
-314 7571 0
-326 7571 0
-329 7571 0
-332 7571 0
-335 7571 0
-341 7571 0
-345 7571 0
-7571 250 312 258 329 299 244 302 199 200 341 217 205 293 347 335 321 230 240 275 246 326 256 305 270 239 307 273 236 213 290 332 264 278 202 296 295 297 252 247 316 207 317 291 249 320 330 314 219 338 323 211 328 238 233 262 344 280 345 319 343 0
-7572 0
-548 7573 0
-550 7573 0
-555 7573 0
-557 7573 0
-575 7573 0
-585 7573 0
-588 7573 0
-590 7573 0
-7573 552 589 584 591 567 573 547 585 566 575 562 586 561 583 579 548 582 577 578 574 555 580 550 569 553 557 565 588 570 587 590 581 576 0
-7574 0
-1591 7575 0
-1592 7575 0
-1594 7575 0
-1597 7575 0
-1599 7575 0
-1603 7575 0
-1611 7575 0
-1622 7575 0
-1625 7575 0
-1628 7575 0
-1631 7575 0
-1641 7575 0
-1689 7575 0
-1699 7575 0
-1712 7575 0
-1721 7575 0
-1727 7575 0
-1735 7575 0
-1737 7575 0
-7575 1682 1638 1667 1708 1697 1656 1688 1665 1642 1670 1691 1722 1603 1628 1650 1715 1724 1704 1644 1687 1622 1609 1630 1611 1654 1631 1641 1721 1592 1639 1597 1662 1709 1689 1591 1594 1636 1694 1735 1683 1727 1706 1736 1737 1711 1712 1605 1632 1672 1713 1685 1718 1599 1730 1733 1648 1699 1625 1739 1720 0
-7576 0
-1820 7577 0
-1826 7577 0
-1846 7577 0
-1848 7577 0
-1880 7577 0
-1881 7577 0
-1885 7577 0
-1887 7577 0
-1897 7577 0
-1919 7577 0
-1922 7577 0
-1925 7577 0
-7577 1937 1881 1795 1885 1892 1789 1922 1911 1909 1920 1865 1931 1935 1895 1934 1854 1846 1889 1839 1834 1837 1792 1820 1803 1880 1860 1863 1852 1868 1933 1809 1801 1883 1925 1928 1887 1823 1826 1828 1897 1790 1902 1807 1907 1842 1829 1830 1906 1797 1918 1904 1916 1840 1836 1886 1848 1910 1919 1870 1913 0
-7578 0
-7575 -7571 -7573 0
-7571 -7577 -7573 0
-7571 -7575 -7577 0
-7575 -7577 -7573 0
7571 7573 7577 7572 7570 7574 7576 7569 7578 0
7571 7575 7577 7572 7574 7570 7576 7569 7578 0
7575 7573 7577 7569 7574 7570 7576 7572 7578 0
-153 7579 0
-156 7579 0
-159 7579 0
-162 7579 0
-165 7579 0
-168 7579 0
-171 7579 0
-172 7579 0
-173 7579 0
-176 7579 0
-179 7579 0
-180 7579 0
-181 7579 0
-182 7579 0
-183 7579 0
-184 7579 0
-185 7579 0
-186 7579 0
-187 7579 0
-188 7579 0
-189 7579 0
-190 7579 0
-191 7579 0
-192 7579 0
-7579 179 153 159 184 187 185 173 182 191 186 180 188 192 172 171 168 189 165 162 190 156 176 181 183 0
-7580 0
-208 7581 0
-210 7581 0
-218 7581 0
-221 7581 0
-224 7581 0
-227 7581 0
-255 7581 0
-265 7581 0
-267 7581 0
-272 7581 0
-276 7581 0
-279 7581 0
-282 7581 0
-286 7581 0
-288 7581 0
-289 7581 0
-292 7581 0
-294 7581 0
-298 7581 0
-300 7581 0
-304 7581 0
-306 7581 0
-308 7581 0
-325 7581 0
-327 7581 0
-331 7581 0
-333 7581 0
-337 7581 0
-339 7581 0
-7581 210 255 218 279 298 292 304 294 327 265 325 306 272 300 331 286 208 289 337 288 308 221 310 339 224 227 276 333 267 282 0
-7582 0
-7583 0
-7584 0
-1600 7585 0
-1602 7585 0
-1610 7585 0
-1613 7585 0
-1616 7585 0
-1619 7585 0
-1647 7585 0
-1657 7585 0
-1659 7585 0
-1664 7585 0
-1668 7585 0
-1671 7585 0
-1674 7585 0
-1678 7585 0
-1680 7585 0
-1681 7585 0
-1684 7585 0
-1686 7585 0
-1690 7585 0
-1692 7585 0
-1696 7585 0
-1698 7585 0
-1700 7585 0
-1702 7585 0
-1717 7585 0
-1719 7585 0
-1723 7585 0
-1725 7585 0
-1729 7585 0
-1731 7585 0
-7585 1702 1680 1668 1619 1731 1616 1681 1600 1698 1602 1719 1659 1657 1678 1671 1610 1647 1674 1696 1692 1686 1690 1717 1725 1700 1613 1664 1729 1684 1723 0
-7586 0
-1798 7587 0
-1800 7587 0
-1808 7587 0
-1814 7587 0
-1845 7587 0
-1855 7587 0
-1866 7587 0
-1872 7587 0
-1876 7587 0
-1878 7587 0
-1879 7587 0
-1882 7587 0
-1884 7587 0
-1888 7587 0
-1890 7587 0
-1896 7587 0
-1898 7587 0
-1915 7587 0
-1917 7587 0
-1921 7587 0
-7587 1879 1855 1811 1890 1798 1845 1876 1872 1929 1921 1862 1878 1817 1888 1814 1882 1857 1915 1896 1866 1808 1923 1869 1898 1894 1900 1917 1927 1884 1800 0
-7588 0
-7581 -7579 0
-7585 -7579 0
-7587 -7579 0
-7581 -7585 0
-7581 -7587 0
-7585 -7587 0
7579 7581 7585 7587 7583 7584 7580 7586 7582 7588 0
-1 7589 0
-137 7589 0
-138 7589 0
-153 7591 0
-154 7591 0
-157 7591 0
-171 7591 0
-173 7591 0
-179 7591 0
-181 7591 0
-192 7591 0
-196 7591 0
-198 7591 0
-7591 196 157 198 171 154 181 173 179 153 192 0
-903 7593 0
-913 7593 0
-960 7593 0
-961 7593 0
-971 7593 0
-972 7593 0
-1006 7593 0
-1010 7593 0
-1011 7593 0
-1019 7593 0
-1020 7593 0
-1045 7595 0
-1050 7595 0
-1053 7595 0
-1054 7595 0
-1061 7595 0
-1062 7595 0
-1063 7595 0
-1064 7595 0
-1071 7595 0
-1072 7595 0
-1085 7595 0
-1086 7595 0
-1095 7595 0
-1096 7595 0
-1110 7595 0
-1111 7595 0
7595 -1121 0
-1122 7595 0
-1126 7595 0
-1156 7595 0
-1157 7595 0
-1160 7595 0
-1161 7595 0
-1169 7595 0
-1170 7595 0
-1181 7595 0
-1182 7595 0
-1191 7595 0
-1192 7595 0
-1195 7597 0
-1203 7597 0
-1204 7597 0
-1211 7597 0
-1212 7597 0
-1213 7597 0
-1214 7597 0
-1221 7597 0
-1222 7597 0
-1235 7597 0
-1236 7597 0
-1245 7597 0
-1246 7597 0
-1260 7597 0
-1261 7597 0
-1271 7597 0
-1272 7597 0
-1275 7597 0
-1276 7597 0
-1310 7597 0
-1311 7597 0
-1319 7597 0
-1320 7597 0
-1342 7597 0
-7589 -7591 0
-7593 -7589 0
-7589 -7595 0
-7597 -7589 0
-7593 -7591 0
-7591 -7595 0
-7593 -7595 0
-7597 -7595 0
-86 7599 0
-7599 91 38 94 96 73 24 54 16 140 29 23 30 86 32 11 40 83 139 49 15 144 48 95 55 58 68 69 2 72 47 74 71 108 85 143 89 31 12 92 37 50 53 97 3 105 121 59 109 90 114 115 84 118 104 127 39 128 129 130 122 0
-7600 0
-7601 185 156 160 175 170 187 186 172 195 176 162 168 183 155 174 184 161 182 169 0
-7602 0
-962 7603 0
-977 7603 0
-980 7603 0
-989 7603 0
-1024 7603 0
-7603 923 1012 965 979 1009 985 896 988 1024 989 1021 933 931 905 917 934 932 941 943 944 947 948 918 1038 980 906 978 949 909 966 942 977 910 952 1016 983 984 962 1008 967 926 953 991 998 1015 1002 1003 999 963 990 968 986 925 897 1023 1022 1033 924 1037 1034 0
-7604 0
-1046 7605 0
-1047 7605 0
-1059 7605 0
-1060 7605 0
-1073 7605 0
-1074 7605 0
-1083 7605 0
-1084 7605 0
-1097 7605 0
-1115 7605 0
-1116 7605 0
-1133 7605 0
-1134 7605 0
-1158 7605 0
-1159 7605 0
-1166 7605 0
-1187 7605 0
-1188 7605 0
-7605 1172 1055 1059 1082 1188 1102 1047 1129 1098 1135 1099 1130 1091 1127 1133 1112 1113 1166 1074 1153 1159 1149 1116 1084 1093 1103 1148 1162 1138 1136 1184 1128 1140 1092 1056 1158 1068 1134 1076 1073 1097 1083 1075 1171 1152 1141 1117 1139 1060 1094 1046 1118 1115 1187 1173 1165 1174 1067 1081 1183 0
-7606 0
1225 -7607 1285 1321 1233 1197 1278 1217 1242 1234 1224 1218 1263 1231 1232 1268 1265 1241 1243 1253 1205 1247 1248 1223 1252 1196 1262 1209 1338 1267 1309 1226 1277 1206 1279 1280 1283 1284 1266 1286 1288 1289 1290 1291 1298 1299 1302 1303 1308 1249 1312 1315 1316 1244 1322 1323 1324 1333 1334 1337 1210 0
-7608 0
-7599 -7603 -7605 0
7599 7601 7603 7605 7600 7604 7602 7606 7608 0
7599 7607 7603 7601 7600 7604 7606 7602 7608 0
7607 7603 7599 7605 7604 7602 7606 7600 7608 0
-7609 45 150 57 135 145 56 13 7 25 146 26 149 35 8 43 4 106 80 21 100 60 14 62 63 33 142 5 75 76 79 46 87 88 93 64 99 70 101 61 102 44 65 110 98 119 36 111 124 107 131 123 133 132 136 22 103 34 134 141 120 0
-7610 0
-152 7611 0
-159 7611 0
-166 7611 0
-178 7611 0
-189 7611 0
-191 7611 0
-7611 191 159 167 158 151 165 177 152 178 180 166 194 188 189 193 164 190 197 163 0
-7612 0
-957 7613 0
-974 7613 0
-994 7613 0
-1000 7613 0
-1014 7613 0
-1018 7613 0
-7613 902 929 927 964 919 1014 982 992 995 1044 996 898 928 951 987 938 939 940 908 1001 954 930 1017 899 1000 907 994 969 955 920 915 957 950 993 970 1018 956 916 901 997 959 958 1004 1005 937 981 973 1013 974 1026 1027 1025 1029 1028 1035 1030 1036 1039 1043 1040 0
-7614 0
-1048 7615 0
-1090 7615 0
-1100 7615 0
-1131 7615 0
-7615 1168 1114 1119 1079 1179 1194 1088 1065 1120 1164 1177 1066 1144 1108 1109 1176 1151 1143 1049 1051 1090 1101 1070 1124 1145 1107 1163 1106 1190 1080 1077 1069 1150 1089 1058 1104 1142 1048 1052 1175 1146 1078 1154 1155 1147 1137 1167 1193 1178 1132 1057 1100 1131 1123 1185 1186 1189 1105 1087 1180 0
-7616 0
-7618 0
-7613 -7615 -7611 0
7611 7609 7613 7615 7610 7614 7612 7616 7618 0
-1 7629 0
-8 7629 0
-76 7629 0
-81 7629 0
-112 7629 0
-146 7629 0
7631 -151 0
-152 7631 0
-190 7631 0
-191 7631 0
-192 7631 0
-193 7631 0
-194 7631 0
-954 7633 0
-955 7633 0
-969 7633 0
-970 7633 0
-975 7633 0
-996 7633 0
-997 7633 0
-1004 7633 0
-1005 7633 0
-1007 7633 0
-1050 7635 0
7635 -1051 0
-1052 7635 0
-1057 7635 0
-1058 7635 0
-1077 7635 0
-1078 7635 0
-1087 7635 0
-1088 7635 0
7635 -1104 0
-1105 7635 0
7635 -1119 0
-1120 7635 0
-1125 7635 0
-1146 7635 0
-1147 7635 0
-1154 7635 0
-1155 7635 0
-1157 7635 0
-1175 7635 0
-1176 7635 0
-1179 7635 0
-1180 7635 0
-1185 7635 0
-1186 7635 0
-1189 7635 0
-1190 7635 0
-1202 7637 0
-1207 7637 0
-1254 7637 0
-1255 7637 0
-1269 7637 0
-1270 7637 0
-1297 7637 0
-1304 7637 0
-1305 7637 0
-1325 7637 0
-1340 7637 0
-7629 -7631 0
-7633 -7629 0
-7629 -7635 0
-7637 -7629 0
-7633 -7631 0
-7635 -7631 0
-7637 -7635 0
-85 7639 0
-86 7639 0
-143 7639 0
-144 7639 0
-7639 17 3 94 127 148 52 147 11 27 122 19 71 68 28 50 121 40 42 49 144 15 77 18 78 58 66 16 73 67 2 69 91 74 51 59 55 86 12 72 92 41 95 105 9 114 116 85 104 115 10 117 39 126 125 20 128 118 138 137 143 0
-7640 0
-7642 0
-913 7643 0
-7643 914 905 945 1009 1012 971 911 946 904 912 979 961 922 909 933 934 921 913 943 944 1038 903 896 988 949 960 953 967 906 989 910 1016 968 965 1042 1015 980 966 962 935 985 998 952 999 963 1010 1011 936 1008 986 1019 897 972 1020 1031 1032 1037 1022 1041 1021 0
-7644 0
-1060 7645 0
-7645 1110 1063 1061 1160 1112 1117 1102 1047 1054 1130 1116 1192 1072 1135 1071 1060 1159 1086 1099 1129 1084 1148 1172 1085 1149 1053 1111 1169 1136 1093 1166 1064 1158 1059 1161 1121 1139 1187 1094 1171 1083 1118 1165 1138 1113 1095 1096 1056 1122 1055 1170 1162 1046 1181 1182 1103 1115 1188 1191 1062 0
-7646 0
-7647 1234 1197 1271 1233 1285 1321 1221 1268 1211 1243 1213 1214 1245 1222 1253 1204 1309 1236 1196 1209 1203 1246 1205 1252 1338 1260 1261 1262 1235 1265 1206 1267 1263 1212 1272 1279 1280 1266 1286 1288 1289 1298 1299 1308 1249 1310 1311 1312 1315 1316 1319 1320 1244 1322 1331 1332 1337 1210 1341 1342 0
-7648 0
-7639 -7643 -7645 0
7639 7643 7645 7647 7644 7642 7646 7640 7648 0
-2 7649 0
-3 7649 0
-8 7649 0
-11 7649 0
-15 7649 0
-16 7649 0
-39 7649 0
-40 7649 0
-55 7649 0
-58 7649 0
-69 7649 0
-71 7649 0
-72 7649 0
-74 7649 0
-86 7649 0
-91 7649 0
-94 7649 0
-105 7649 0
-114 7649 0
-115 7649 0
-118 7649 0
-122 7649 0
-143 7649 0
-144 7649 0
7651 -152 0
7651 -169 0
7651 -170 0
7651 -175 0
-927 7653 0
-962 7653 0
7653 -963 0
-968 7653 0
7653 -980 0
7653 -988 0
7653 -989 0
-1004 7653 0
-1005 7653 0
7653 -1009 0
-1016 7653 0
-1030 7653 0
7655 -1060 0
7655 -1102 0
7655 -1136 0
7655 -1187 0
7657 -1196 0
-1197 7657 0
-1205 7657 0
-1206 7657 0
-1209 7657 0
-1210 7657 0
-1233 7657 0
-1234 7657 0
-1243 7657 0
-1244 7657 0
-1252 7657 0
-1253 7657 0
-1262 7657 0
-1263 7657 0
-1265 7657 0
-1266 7657 0
-1267 7657 0
-1268 7657 0
-1285 7657 0
-1286 7657 0
-1288 7657 0
-1289 7657 0
-1312 7657 0
-1315 7657 0
-1316 7657 0
-1321 7657 0
-1322 7657 0
-7649 -7651 -7655 0
-7649 -7653 -7655 0
-7653 -7651 -7655 0
-7657 -7651 -7655 0
7663 -913 0
-1 7669 0
-162 7671 0
-168 7671 0
-182 7671 0
-183 7671 0
7671 -184 0
-187 7671 0
-192 7671 0
-976 7673 0
-977 7673 0
-978 7673 0
-983 7673 0
-984 7673 0
-990 7673 0
-991 7673 0
-1002 7673 0
-1003 7673 0
-1050 7675 0
-1067 7675 0
-1068 7675 0
-1073 7675 0
-1074 7675 0
-1075 7675 0
-1076 7675 0
-1081 7675 0
-1082 7675 0
-1091 7675 0
-1092 7675 0
-1097 7675 0
-1098 7675 0
7675 -1126 0
-1127 7675 0
-1128 7675 0
-1133 7675 0
7675 -1134 0
-1140 7675 0
-1141 7675 0
-1152 7675 0
-1153 7675 0
-1157 7675 0
-1173 7675 0
-1174 7675 0
-1183 7675 0
-1184 7675 0
-1217 7677 0
-1218 7677 0
-1223 7677 0
-1224 7677 0
-1247 7677 0
-1277 7677 0
-1278 7677 0
-1283 7677 0
-1284 7677 0
-1290 7677 0
-1291 7677 0
-1302 7677 0
-1303 7677 0
-1306 7677 0
-1307 7677 0
-1323 7677 0
-1324 7677 0
-1333 7677 0
-1334 7677 0
-7669 -7671 0
-7673 -7669 0
-7669 -7675 0
-7677 -7669 0
-7675 -7671 0
-7677 -7675 0
-402 7679 0
-405 7679 0
-406 7679 0
-415 7679 0
-416 7679 0
-424 7679 0
-437 7679 0
-447 7679 0
-448 7679 0
-462 7679 0
-463 7679 0
-473 7679 0
-474 7679 0
7679 -477 0
-478 7679 0
-508 7679 0
-509 7679 0
-512 7679 0
-513 7679 0
-521 7679 0
-522 7679 0
-533 7679 0
-534 7679 0
-543 7679 0
-544 7679 0
-7679 509 437 463 544 402 448 534 462 415 477 474 508 447 397 512 416 513 478 438 413 424 543 406 473 521 522 414 533 405 423 0
-750 7681 0
-1393 7683 0
-1398 7683 0
-1402 7683 0
-1409 7683 0
-1410 7683 0
-1411 7683 0
-1412 7683 0
-1419 7683 0
-1420 7683 0
-1433 7683 0
-1434 7683 0
-1443 7683 0
-1444 7683 0
-1458 7683 0
-1459 7683 0
-1474 7683 0
-1517 7683 0
-1518 7683 0
-1529 7683 0
-1539 7683 0
-1540 7683 0
-7683 1412 1398 1504 1470 1473 1433 1469 1539 1474 1530 1401 1393 1508 1529 1444 1540 1420 1458 1459 1505 1410 1443 1509 1518 1411 1419 1517 1402 1434 1409 0
-1591 7685 0
-1596 7685 0
-1599 7685 0
-1600 7685 0
-1608 7685 0
-1609 7685 0
-1618 7685 0
-1656 7685 0
-1668 7685 0
-1672 7685 0
-1702 7685 0
-1703 7685 0
-1715 7685 0
-1727 7685 0
-1738 7685 0
-2139 7687 0
-2142 7687 0
-2143 7687 0
-2150 7687 0
-2155 7687 0
7687 -2158 0
-2174 7687 0
-2176 7687 0
-2182 7687 0
7687 -2184 0
-7687 2150 2139 2158 2155 2184 2143 2176 2182 2142 2174 0
-7685 -7679 0
-7679 -7687 0
-7681 -7687 0
-7683 -7685 0
-7685 -7687 0
-1394 7693 0
-1395 7693 0
-1430 7693 0
-1431 7693 0
-1445 7693 0
-1446 7693 0
-1463 7693 0
-1482 7693 0
-7693 1447 1484 1450 1506 1488 1432 1477 1445 1519 1483 1510 1531 1407 1522 1475 1465 1461 1464 1466 1430 1422 1423 1424 1394 1500 1404 1520 1478 1451 1482 1446 1463 1497 1536 1476 1501 1460 1507 1489 1513 1514 1408 1431 1486 1395 1481 1487 1403 1439 1415 1429 1440 1416 1521 1496 1421 1441 1532 1442 1535 0
7697 -2177 0
7699 -421 0
-422 7699 0
7699 -429 0
7699 -502 0
7699 -503 0
-7699 502 452 441 460 520 496 546 453 439 538 404 429 442 401 400 515 537 503 527 422 483 430 418 461 409 471 499 417 403 456 475 542 484 457 507 489 519 432 494 421 516 440 458 497 472 506 495 431 498 476 529 530 528 410 531 541 466 532 459 545 0
7703 -1399 0
7703 -1400 0
-1405 7703 0
7703 -1406 0
-1414 7703 0
-1417 7703 0
7703 -1418 0
7703 -1452 0
7703 -1454 0
-1456 7703 0
-1467 7703 0
7703 -1472 0
7703 -1491 0
-1494 7703 0
-1498 7703 0
7703 -1503 0
7703 -1537 0
7703 -1542 0
-7703 1397 1472 1534 1498 1456 1542 1396 1502 1438 1400 1455 1467 1528 1425 1527 1471 1480 1524 1515 1537 1492 1538 1453 1499 1436 1485 1479 1491 1512 1399 1533 1417 1405 1418 1495 1454 1494 1462 1541 1448 1503 1468 1413 1525 1437 1511 1428 1435 1406 1414 1490 1526 1452 1427 1426 1523 1449 1493 1516 1457 0
7705 -1710 0
7707 -2146 0
7707 -2147 0
7707 -2148 0
7707 -2154 0
7707 -2165 0
7707 -2168 0
-7707 2167 2140 2154 2181 2170 2147 2183 2151 2166 2164 2169 2141 2146 2148 2178 2165 2171 2168 2180 0
-7705 -7707 -7699 0
-401 7709 0
-431 7709 0
-432 7709 0
-441 7709 0
-476 7709 0
-479 7709 0
-480 7709 0
-7709 502 417 441 449 452 484 536 485 546 529 421 496 480 479 419 450 432 503 400 444 461 426 433 428 505 460 422 492 401 434 476 486 418 442 483 458 431 489 516 495 420 475 493 497 466 427 504 425 443 519 453 520 525 526 494 535 530 459 515 545 0
-7710 0
-7712 0
-1415 7713 0
-1418 7713 0
-1421 7713 0
-1422 7713 0
-1423 7713 0
-1424 7713 0
-1427 7713 0
-1430 7713 0
-1437 7713 0
-1439 7713 0
-1446 7713 0
-1449 7713 0
-1471 7713 0
-1476 7713 0
-1482 7713 0
-1485 7713 0
-1489 7713 0
-1542 7713 0
-7713 1397 1471 1472 1396 1521 1476 1500 1542 1438 1475 1457 1462 1480 1448 1413 1424 1482 1531 1525 1488 1512 1421 1427 1541 1522 1498 1490 1455 1449 1422 1485 1430 1492 1428 1439 1418 1415 1515 1454 1511 1445 1489 1414 1417 1516 1423 1481 1446 1499 1437 1491 1493 1479 1416 1526 1440 1429 1532 1456 1501 0
-7714 0
-1670 7715 0
-1696 7715 0
-1697 7715 0
-1710 7715 0
-7715 1691 1621 1680 1660 1688 1669 1697 1710 1637 1683 1696 1620 1594 1646 1615 1652 1647 1673 1654 1627 1720 1625 1689 1699 1619 1611 1644 1740 1635 1723 1714 1636 1670 1687 1674 1616 1677 1653 1690 1628 1719 1678 1729 1730 1686 1638 1595 1724 1612 1626 1622 1643 1655 1709 1613 1698 1739 1679 1614 1713 0
-7716 0
-2156 7717 0
-2164 7717 0
-2167 7717 0
-2169 7717 0
-7717 2167 2140 2159 2166 2157 2183 2164 2154 2145 2141 2169 2181 2147 2156 2168 2180 2160 2144 2148 0
-7718 0
-7717 -7715 -7709 0
7709 7713 7715 7717 7714 7712 7716 7710 7718 0
-397 7719 0
7719 -402 0
-404 7719 0
-429 7719 0
-430 7719 0
-439 7719 0
-440 7719 0
-456 7719 0
-457 7719 0
-471 7719 0
-472 7719 0
7719 -477 0
7719 -478 0
-506 7719 0
-507 7719 0
-527 7719 0
-528 7719 0
-531 7719 0
-532 7719 0
-537 7719 0
-538 7719 0
-541 7719 0
-542 7719 0
-7719 542 477 499 527 478 456 509 402 429 531 472 440 532 508 439 397 410 403 528 409 537 471 404 506 498 507 430 541 457 538 0
-879 7721 0
-880 7721 0
-1393 7723 0
-1398 7723 0
-1399 7723 0
-1400 7723 0
-1405 7723 0
-1406 7723 0
-1425 7723 0
-1426 7723 0
-1435 7723 0
-1436 7723 0
-1452 7723 0
-1453 7723 0
-1467 7723 0
-1473 7723 0
-1474 7723 0
-1494 7723 0
-1495 7723 0
-1503 7723 0
-1523 7723 0
-1533 7723 0
-1534 7723 0
-1537 7723 0
-1538 7723 0
-7723 1398 1474 1527 1504 1534 1468 1435 1425 1467 1473 1452 1537 1503 1393 1453 1436 1406 1505 1533 1400 1494 1399 1502 1528 1523 1405 1524 1538 1495 1426 0
-1596 7725 0
-1597 7725 0
-1598 7725 0
-1623 7725 0
-1624 7725 0
-1633 7725 0
-1650 7725 0
-1651 7725 0
-1665 7725 0
7725 -1672 0
-1692 7725 0
-1702 7725 0
7725 -1703 0
-1722 7725 0
-7725 1703 1598 1722 1603 1591 1701 1671 1693 1651 1596 1692 1650 1725 1721 1634 1732 1604 1597 1672 1700 1623 1624 1702 1736 1666 1726 1731 1735 1665 1633 0
-2143 7727 0
-2146 7727 0
-2151 7727 0
7727 -2158 0
-2165 7727 0
-2170 7727 0
-2171 7727 0
7727 -2178 0
-7727 2171 2143 2165 2178 2170 2146 2151 2158 0
-7723 -7719 0
-7725 -7719 0
-7719 -7727 0
-7721 -7727 0
-7723 -7725 0
-7723 -7727 0
-7725 -7727 0
7729 -470 0
7735 -1593 0
-1601 7735 0
7735 -1607 0
-1617 7735 0
7735 -1645 0
7735 -1648 0
7735 -1662 0
7735 -1676 0
-7735 1645 1593 1668 1629 1704 1608 1706 1694 1648 1685 1728 1656 1716 1602 1609 1684 1649 1661 1715 1618 1664 1658 1606 1718 1607 1631 1695 1717 1681 1641 1675 1682 1676 1712 1632 1737 1617 1599 1630 1640 1642 1667 1592 1705 1610 1657 1727 1738 1711 1662 1639 1605 1600 1659 1601 1733 1707 1734 1663 1708 0
7737 -2139 0
-7737 -7735 -7729 0
7739 -403 0
7739 -404 0
7739 -407 0
7739 -408 0
7739 -409 0
7739 -410 0
7739 -411 0
7739 -412 0
7739 -445 0
7739 -446 0
-451 7739 0
-454 7739 0
7739 -455 0
-456 7739 0
-457 7739 0
7739 -469 0
7739 -470 0
-487 7739 0
7739 -488 0
7739 -531 0
7739 -532 0
-1394 7743 0
-1395 7743 0
-1400 7743 0
-1404 7743 0
-1406 7743 0
-1407 7743 0
-1408 7743 0
-1432 7743 0
-1441 7743 0
7743 -1450 0
-1451 7743 0
-1465 7743 0
-1468 7743 0
-1477 7743 0
-1483 7743 0
-1484 7743 0
-1487 7743 0
-1496 7743 0
-1506 7743 0
-1513 7743 0
-1514 7743 0
-1524 7743 0
-1533 7743 0
-1537 7743 0
-7743 1395 1537 1447 1467 1394 1519 1538 1507 1510 1468 1523 1405 1513 1524 1399 1463 1407 1450 1495 1403 1497 1496 1406 1465 1536 1435 1535 1426 1453 1483 1534 1503 1514 1506 1461 1452 1460 1527 1408 1494 1477 1466 1442 1486 1436 1478 1484 1441 1528 1400 1432 1487 1404 1431 1425 1464 1533 1520 1451 1502 0
7745 -1662 0
7745 -1681 0
7745 -1705 0
7745 -1735 0
7745 -1736 0
-7745 1695 1645 1722 1592 1598 1662 1651 1603 1694 1649 1661 1721 1726 1692 1630 1682 1624 1602 1664 1648 1629 1712 1718 1711 1685 1633 1650 1684 1634 1705 1717 1681 1604 1736 1593 1675 1732 1658 1663 1701 1676 1623 1640 1606 1734 1639 1735 1605 1601 1700 1665 1666 1704 1708 1731 1693 1733 1659 1597 1725 0
7747 -2165 0
7747 -2178 0
7747 -2179 0
-7747 -7745 -7739 0
-7743 -7745 -7747 0
-512 7749 0
-513 7749 0
7749 -543 0
-544 7749 0
-545 7749 0
7749 -546 0
-7749 496 406 442 502 437 448 534 401 418 462 415 421 475 503 453 544 545 400 416 432 414 447 413 473 458 459 441 461 513 463 422 417 474 424 494 483 484 489 438 516 460 497 405 452 512 495 515 431 476 520 521 522 466 530 519 423 529 543 533 546 0
-1480 7753 0
-1539 7753 0
-1540 7753 0
-1541 7753 0
-1542 7753 0
-7753 1397 1444 1498 1511 1470 1471 1455 1419 1443 1469 1472 1409 1412 1448 1396 1480 1493 1542 1414 1499 1457 1402 1456 1438 1541 1401 1449 1526 1479 1428 1515 1492 1491 1508 1485 1411 1427 1410 1462 1437 1516 1529 1525 1454 1420 1517 1458 1459 1433 1539 1512 1518 1434 1530 1417 1509 1418 1540 1413 1490 0
7755 -1670 0
7755 -1710 0
7757 -2167 0
7757 -2169 0
-7755 -7757 -7749 0
-402 7759 0
-419 7759 0
-420 7759 0
-427 7759 0
-428 7759 0
-434 7759 0
-443 7759 0
-444 7759 0
-449 7759 0
-450 7759 0
7759 -477 0
7759 -478 0
-479 7759 0
-480 7759 0
-485 7759 0
-486 7759 0
-492 7759 0
-493 7759 0
-505 7759 0
-525 7759 0
-526 7759 0
-535 7759 0
-536 7759 0
-7759 535 428 443 478 477 420 504 427 492 444 505 425 433 508 449 525 419 397 402 480 434 536 486 493 509 485 479 450 426 526 0
-775 7761 0
-1430 7763 0
-1439 7763 0
-1440 7763 0
-1445 7763 0
-1446 7763 0
-1476 7763 0
-1481 7763 0
-1482 7763 0
-1488 7763 0
-1489 7763 0
-1531 7763 0
-1532 7763 0
-7763 1398 1393 1505 1475 1476 1473 1430 1489 1439 1440 1474 1500 1504 1482 1521 1445 1423 1415 1531 1446 1532 1488 1429 1522 1421 1424 1481 1422 1501 1416 0
7765 -1591 0
-1596 7765 0
-1621 7765 0
-1622 7765 0
-1638 7765 0
-1671 7765 0
-1672 7765 0
-1674 7765 0
-1686 7765 0
-1702 7765 0
-1703 7765 0
-1719 7765 0
-1720 7765 0
-7765 1703 1680 1614 1591 1628 1699 1687 1596 1730 1686 1720 1619 1644 1637 1613 1622 1679 1672 1621 1702 1620 1729 1674 1719 1627 1638 1673 1698 1643 1671 0
-2143 7767 0
-2144 7767 0
-2145 7767 0
7767 -2156 0
-2157 7767 0
7767 -2158 0
-7767 2157 2144 2143 2145 2158 2156 2159 2160 0
-7765 -7759 0
-7759 -7767 0
-7761 -7767 0
-7763 -7765 0
-7765 -7767 0
-5 7769 0
-7 7769 0
-21 7769 0
-23 7769 0
-25 7769 0
-38 7769 0
-54 7769 0
-64 7769 0
-74 7769 0
-75 7769 0
-84 7769 0
-111 7769 0
-115 7769 0
-136 7769 0
-1046 7771 0
-1049 7771 0
7771 -1051 0
-1056 7771 0
-1058 7771 0
-1060 7771 0
7771 -1065 0
-1067 7771 0
-1069 7771 0
-1082 7771 0
-1084 7771 0
-1093 7771 0
7771 -1108 0
-1118 7771 0
7771 -1119 0
-1124 7771 0
-1128 7771 0
-1150 7771 0
-1155 7771 0
-1159 7771 0
-1166 7771 0
-1178 7771 0
-1189 7771 0
-1194 7771 0
-7771 1159 1082 1119 1067 1153 1058 1074 1194 1168 1189 1178 1108 1150 1051 1084 1113 1056 1128 1098 1065 1166 1060 1155 1049 1046 1124 1069 1180 1118 1093 0
-1196 7773 0
-1201 7773 0
-1206 7773 0
-1208 7773 0
-1210 7773 0
-1217 7773 0
-1224 7773 0
-1232 7773 0
-1234 7773 0
-1243 7773 0
-1248 7773 0
-1268 7773 0
-1269 7773 0
-1274 7773 0
-1278 7773 0
-1303 7773 0
-1309 7773 0
-1316 7773 0
-1318 7773 0
-1339 7773 0
-1344 7773 0
-1394 7775 0
-1399 7775 0
-1404 7775 0
-1406 7775 0
-1408 7775 0
-1413 7775 0
-1415 7775 0
-1417 7775 0
-1422 7775 0
-1430 7775 0
-1432 7775 0
-1441 7775 0
-1446 7775 0
-1456 7775 0
-1466 7775 0
-1467 7775 0
-1472 7775 0
-1476 7775 0
-1498 7775 0
-1501 7775 0
-1514 7775 0
-1516 7775 0
-1526 7775 0
-1528 7775 0
-1537 7775 0
-1542 7775 0
-7775 1397 1394 1408 1432 1498 1441 1461 1399 1516 1456 1501 1514 1415 1542 1507 1528 1446 1430 1422 1413 1537 1406 1417 1404 1476 1472 1467 1526 1466 1503 0
-1592 7777 0
-1595 7777 0
-1597 7777 0
-1602 7777 0
-1604 7777 0
-1611 7777 0
-1613 7777 0
-1615 7777 0
-1620 7777 0
-1628 7777 0
-1630 7777 0
-1639 7777 0
-1644 7777 0
-1654 7777 0
-1659 7777 0
-1664 7777 0
-1665 7777 0
-1670 7777 0
-1674 7777 0
-1696 7777 0
-1701 7777 0
7777 -1705 0
-1712 7777 0
-1714 7777 0
-1724 7777 0
-1726 7777 0
-1735 7777 0
-1740 7777 0
-7777 1644 1592 1604 1620 1611 1699 1705 1701 1602 1595 1714 1696 1724 1674 1670 1639 1659 1664 1630 1665 1628 1597 1613 1615 1735 1712 1726 1654 1606 1740 0
-7769 -7771 0
-7769 -7777 0
-7773 -7771 0
-7775 -7771 0
-7771 -7777 0
-7775 -7773 0
-7773 -7777 0
-7775 -7777 0
7779 -1 0
-1047 7781 0
7781 -1100 0
-1109 7781 0
7781 -1116 0
7781 -1130 0
7781 -1131 0
-1145 7781 0
7781 -1163 0
7781 -1187 0
-1233 7783 0
-1244 7783 0
-1266 7783 0
-1285 7783 0
-1321 7783 0
-1337 7783 0
7787 -1591 0
-1598 7787 0
-1603 7787 0
-1610 7787 0
-1612 7787 0
-1616 7787 0
-1618 7787 0
-1623 7787 0
-1625 7787 0
-1627 7787 0
-1629 7787 0
-1631 7787 0
-1634 7787 0
-1636 7787 0
7787 -1640 0
-1643 7787 0
7787 -1646 0
7787 -1650 0
-1655 7787 0
7787 -1660 0
-1666 7787 0
-1668 7787 0
-1676 7787 0
-1681 7787 0
7787 -1683 0
-1684 7787 0
-1686 7787 0
7787 -1688 0
7787 -1689 0
7787 -1697 0
-1700 7787 0
-1706 7787 0
-1713 7787 0
-1717 7787 0
-1721 7787 0
-1722 7787 0
-1731 7787 0
-1733 7787 0
-7783 -7779 -7781 0
-7779 -7781 -7787 0
7795 -1396 0
-1416 7795 0
-1421 7795 0
-1424 7795 0
-1447 7795 0
7795 -1449 0
-1460 7795 0
-7795 1398 1465 1506 1510 1458 1540 1403 1482 1435 1531 1492 1396 1513 1401 1522 1530 1541 1536 1463 1455 1527 1512 1469 1411 1520 1474 1539 1440 1421 1424 1477 1419 1449 1423 1437 1451 1494 1475 1504 1496 1518 1453 1409 1439 1529 1525 1428 1509 1489 1500 1497 1447 1416 1450 1487 1484 1407 1426 1538 1460 0
-5 7809 0
-47 7809 0
-105 7809 0
-139 7809 0
-1046 7811 0
-1049 7811 0
-1053 7811 0
-1055 7811 0
7811 -1059 0
-1061 7811 0
-1075 7811 0
-1080 7811 0
-1089 7811 0
-1091 7811 0
-1102 7811 0
-1107 7811 0
-1118 7811 0
7811 -1121 0
7811 -1124 0
-1144 7811 0
-1149 7811 0
-1152 7811 0
-1159 7811 0
-1161 7811 0
-1172 7811 0
-1177 7811 0
-1182 7811 0
-1183 7811 0
-1188 7811 0
-1191 7811 0
-1193 7811 0
-1203 7813 0
-1205 7813 0
-1209 7813 0
-1211 7813 0
-1225 7813 0
-1241 7813 0
-1252 7813 0
-1257 7813 0
-1271 7813 0
-1277 7813 0
-1302 7813 0
-1322 7813 0
-1324 7813 0
-1333 7813 0
-1338 7813 0
-1341 7813 0
-1343 7813 0
-1394 7815 0
-1397 7815 0
-1401 7815 0
-1403 7815 0
-1407 7815 0
-1409 7815 0
-1423 7815 0
-1428 7815 0
-1437 7815 0
-1439 7815 0
7815 -1450 0
-1455 7815 0
-1466 7815 0
-1469 7815 0
-1472 7815 0
-1475 7815 0
-1492 7815 0
-1498 7815 0
-1520 7815 0
-1522 7815 0
-1525 7815 0
-1531 7815 0
-1536 7815 0
-1539 7815 0
-1541 7815 0
-7815 1397 1450 1498 1500 1466 1469 1536 1531 1394 1539 1507 1520 1409 1428 1530 1423 1541 1472 1509 1439 1407 1525 1522 1437 1475 1401 1455 1492 1497 1403 0
-1592 7817 0
-1595 7817 0
-1599 7817 0
-1605 7817 0
-1607 7817 0
-1621 7817 0
-1626 7817 0
-1635 7817 0
-1637 7817 0
-1648 7817 0
-1653 7817 0
-1664 7817 0
-1667 7817 0
-1670 7817 0
-1673 7817 0
-1690 7817 0
-1695 7817 0
-1696 7817 0
-1698 7817 0
7817 -1705 0
-1707 7817 0
-1718 7817 0
-1720 7817 0
-1723 7817 0
-1728 7817 0
-1729 7817 0
-1734 7817 0
-1737 7817 0
-1739 7817 0
-7817 1705 1601 1592 1718 1607 1737 1626 1696 1690 1734 1621 1599 1673 1653 1698 1648 1723 1605 1664 1728 1667 1595 1739 1707 1635 1637 1695 1729 1720 1670 0
-7809 -7817 0
-7813 -7811 0
-7815 -7811 0
-7811 -7817 0
-7813 -7817 0
-7815 -7817 0
7819 -1 0
7821 -1047 0
-1093 7821 0
7821 -1100 0
7821 -1108 0
-1109 7821 0
7821 -1116 0
7821 -1131 0
-1145 7821 0
-1151 7821 0
7821 -1163 0
7821 -1166 0
-1167 7821 0
-1206 7823 0
-1210 7823 0
-1234 7823 0
-1243 7823 0
-1417 7825 0
-1422 7825 0
-7825 1395 1537 1511 1464 1471 1461 1515 1393 1443 1499 1542 1526 1445 1523 1483 1467 1521 1456 1448 1405 1490 1517 1432 1501 1415 1473 1446 1399 1434 1503 1528 1493 1413 1417 1410 1408 1516 1485 1430 1406 1514 1457 1402 1422 1452 1534 1459 1404 1532 1429 1454 1488 1481 1479 1400 1462 1476 1505 1495 1441 0
-1597 7827 0
-1600 7827 0
7827 -1602 0
-1604 7827 0
-1608 7827 0
-1611 7827 0
-1613 7827 0
-1615 7827 0
-1620 7827 0
7827 -1628 0
-1639 7827 0
7827 -1650 0
7827 -1652 0
-1654 7827 0
-1657 7827 0
7827 -1662 0
-1665 7827 0
-1671 7827 0
-1679 7827 0
-1691 7827 0
-1693 7827 0
7827 -1703 0
-1709 7827 0
-1712 7827 0
-1715 7827 0
-1719 7827 0
7827 -1724 0
-1730 7827 0
-1735 7827 0
-7823 -7819 -7821 0
-7819 -7821 -7827 0
7829 -1 0
7831 -1047 0
7831 -1055 0
7831 -1059 0
7831 -1100 0
-1102 7831 0
7831 -1107 0
-1109 7831 0
7831 -1116 0
7831 -1131 0
-1145 7831 0
7831 -1163 0
7831 -1172 0
7831 -1177 0
7831 -1193 0
-1197 7833 0
-1205 7833 0
-1209 7833 0
-1322 7833 0
-1338 7833 0
7837 -1591 0
7837 -1593 0
-1598 7837 0
-1599 7837 0
-1600 7837 0
-1601 7837 0
-1603 7837 0
-1605 7837 0
-1607 7837 0
-1608 7837 0
-1621 7837 0
7837 -1626 0
-1627 7837 0
-1632 7837 0
-1635 7837 0
-1637 7837 0
-1641 7837 0
7837 -1646 0
-1648 7837 0
7837 -1650 0
7837 -1652 0
-1653 7837 0
-1655 7837 0
-1657 7837 0
7837 -1660 0
-1667 7837 0
-1669 7837 0
-1671 7837 0
-1673 7837 0
-1677 7837 0
-1679 7837 0
-1681 7837 0
7837 -1683 0
-1686 7837 0
7837 -1688 0
7837 -1690 0
-1691 7837 0
-1693 7837 0
-1698 7837 0
-1715 7837 0
7837 -1718 0
-1719 7837 0
-1720 7837 0
-1721 7837 0
-1723 7837 0
-1729 7837 0
-1730 7837 0
-1732 7837 0
-1737 7837 0
-1739 7837 0
-7837 1703 1662 1643 1671 1688 1608 1691 1697 1626 1667 1660 1601 1681 1709 1599 1669 1632 1728 1593 1652 1718 1686 1723 1713 1653 1720 1690 1603 1648 1607 1598 1650 1719 1635 1721 1734 1673 1737 1657 1621 1683 1693 1698 1641 1627 1695 1679 1655 1637 1591 1739 1677 1605 1715 1730 1729 1707 1732 1646 1600 0
-7833 -7829 -7831 0
-7829 -7831 -7837 0
-7833 -7829 -7837 0
-27 7839 0
7841 -1060 0
7845 -1399 0
-1404 7845 0
-1408 7845 0
7845 -1421 0
7845 -1422 0
-1430 7845 0
-1432 7845 0
-1441 7845 0
-1446 7845 0
7845 -1447 0
-1460 7845 0
7845 -1461 0
-1474 7845 0
-1476 7845 0
-1494 7845 0
-1510 7845 0
-7845 1398 1510 1537 1489 1460 1449 1477 1419 1432 1494 1440 1399 1516 1504 1404 1424 1465 1421 1461 1396 1513 1408 1487 1538 1411 1451 1416 1453 1474 1540 1456 1528 1463 1415 1501 1484 1514 1458 1430 1446 1503 1435 1496 1542 1422 1529 1426 1526 1413 1518 1447 1406 1512 1417 1527 1441 1467 1482 1476 1506 0
7847 -1645 0
7847 -1663 0
-7847 1704 1645 1651 1661 1644 1656 1694 1649 1594 1619 1615 1622 1692 1680 1699 1682 1597 1714 1628 1602 1614 1659 1647 1617 1633 1630 1624 1620 1654 1604 1611 1725 1735 1685 1674 1596 1687 1710 1638 1702 1665 1736 1672 1738 1675 1639 1663 1727 1712 1613 1711 1740 1658 1708 1606 1716 1701 1726 1724 1609 0
-7839 -7841 -7847 0
-5 7849 0
-20 7849 0
-22 7849 0
-26 7849 0
-28 7849 0
-33 7849 0
-35 7849 0
-41 7849 0
-50 7849 0
-52 7849 0
-76 7849 0
-78 7849 0
-99 7849 0
-106 7849 0
-110 7849 0
-116 7849 0
-127 7849 0
-132 7849 0
-1046 7851 0
-1064 7851 0
-1070 7851 0
-1079 7851 0
-1083 7851 0
-1085 7851 0
-1088 7851 0
-1090 7851 0
-1094 7851 0
-1096 7851 0
-1118 7851 0
-1122 7851 0
7851 -1124 0
7851 -1130 0
-1132 7851 0
-1154 7851 0
-1159 7851 0
-1171 7851 0
-1185 7851 0
-1187 7851 0
-1196 7853 0
-1233 7853 0
-1244 7853 0
-1246 7853 0
-1270 7853 0
-1272 7853 0
-1321 7853 0
-1326 7853 0
-1337 7853 0
-1394 7855 0
-1397 7855 0
-1412 7855 0
-1414 7855 0
-1418 7855 0
-1420 7855 0
-1425 7855 0
-1427 7855 0
-1431 7855 0
-1433 7855 0
-1436 7855 0
-1438 7855 0
-1442 7855 0
-1444 7855 0
-1466 7855 0
-1468 7855 0
-1470 7855 0
-1472 7855 0
-1478 7855 0
-1480 7855 0
-1498 7855 0
-1502 7855 0
-1519 7855 0
-1524 7855 0
-1533 7855 0
-7855 1397 1519 1498 1508 1478 1438 1486 1470 1472 1414 1425 1491 1524 1466 1533 1444 1427 1480 1442 1431 1535 1433 1468 1502 1418 1412 1436 1420 1394 1507 0
-1592 7857 0
-1595 7857 0
-1610 7857 0
-1612 7857 0
-1616 7857 0
-1618 7857 0
-1623 7857 0
-1629 7857 0
-1631 7857 0
-1634 7857 0
-1636 7857 0
7857 -1640 0
-1642 7857 0
7857 -1664 0
-1666 7857 0
-1668 7857 0
7857 -1670 0
-1676 7857 0
-1678 7857 0
-1684 7857 0
7857 -1689 0
7857 -1696 0
-1700 7857 0
7857 -1705 0
-1717 7857 0
-1722 7857 0
-1731 7857 0
-7849 -7851 0
-7849 -7857 0
-7853 -7851 0
-7855 -7851 0
-7851 -7857 0
-7855 -7853 0
-7853 -7857 0
-7855 -7857 0
-151 7859 0
-156 7859 0
-158 7859 0
-168 7859 0
-172 7859 0
-176 7859 0
-183 7859 0
-189 7859 0
-194 7859 0
-197 7859 0
-7859 197 151 168 183 172 194 189 158 176 156 0
-398 7861 0
-401 7861 0
-408 7861 0
-421 7861 0
-530 7861 0
-896 7865 0
-915 7865 0
-919 7865 0
-963 7865 0
-2140 7867 0
-2153 7867 0
-2169 7867 0
-2178 7867 0
7867 -2183 0
-7867 2149 2138 2183 2169 2160 2153 2178 2145 2171 2140 0
-7861 -7859 0
-7865 -7859 0
-7859 -7867 0
-7867 -7861 0
-7865 -7867 0
7871 -404 0
7871 -456 0
-472 7871 0
7871 -477 0
-7871 495 448 431 475 435 490 458 538 461 463 422 449 527 506 539 474 414 477 485 446 536 409 433 472 440 492 442 416 452 424 406 499 437 468 456 503 404 482 523 484 489 494 509 397 483 429 418 399 512 497 515 487 521 466 525 519 528 447 537 438 0
7889 -171 0
7889 -190 0
7893 -794 0
7893 -796 0
-820 7893 0
7895 -898 0
7895 -913 0
-7893 -7895 -7889 0
-154 7899 0
-155 7899 0
-156 7899 0
-187 7899 0
-188 7899 0
-189 7899 0
-195 7899 0
-398 7901 0
-432 7901 0
7901 -502 0
-775 7903 0
-780 7903 0
-789 7903 0
-877 7903 0
-882 7903 0
-896 7905 0
-903 7905 0
-909 7905 0
-957 7905 0
-968 7905 0
-1000 7905 0
-1009 7905 0
-2140 7907 0
-2147 7907 0
7907 -2153 0
-2156 7907 0
-2162 7907 0
-2175 7907 0
-2176 7907 0
-2182 7907 0
-7907 2147 2140 2182 2153 2162 2175 2156 2176 0
-7903 -7899 0
-7905 -7899 0
-7899 -7907 0
-7907 -7901 0
-7903 -7905 0
-7903 -7907 0
-7905 -7907 0
7909 -186 0
-781 7913 0
7917 -2178 0
-7913 -7909 -7917 0
7925 -995 0
7929 -176 0
7929 -183 0
-7929 168 159 198 169 160 157 191 151 194 175 183 176 161 158 162 172 182 192 197 170 174 0
7931 -400 0
7931 -402 0
7931 -421 0
7931 -439 0
7931 -478 0
-7931 544 421 478 469 467 518 480 542 457 400 420 434 531 462 491 522 481 471 402 450 417 439 488 444 486 415 436 430 403 464 507 423 460 428 465 500 445 451 516 493 455 412 514 410 541 510 498 419 505 425 517 426 408 508 520 546 533 530 453 532 0
7937 -2161 0
-7937 -7931 -7929 0
-156 7939 0
-165 7939 0
-171 7939 0
-180 7939 0
-181 7939 0
-185 7939 0
-189 7939 0
-190 7939 0
-401 7941 0
-431 7941 0
7941 -437 0
7941 -502 0
-512 7941 0
-523 7941 0
-794 7943 0
-796 7943 0
-820 7943 0
-830 7943 0
-832 7943 0
-850 7943 0
-854 7943 0
-859 7943 0
-860 7943 0
-896 7945 0
-980 7945 0
-988 7945 0
-1009 7945 0
-2140 7947 0
-2141 7947 0
-2142 7947 0
-2151 7947 0
-2152 7947 0
-2153 7947 0
-2154 7947 0
-7939 -7941 0
-7943 -7939 0
-7945 -7939 0
-7947 -7939 0
-7947 -7941 0
-7943 -7945 0
-7945 -7947 0
7967 -1393 0
-1399 7967 0
-1406 7967 0
7967 -1409 0
-1413 7967 0
-1417 7967 0
7967 -1419 0
7967 -1426 0
-1430 7967 0
7967 -1432 0
7967 -1455 0
-1456 7967 0
7967 -1462 0
7967 -1463 0
7967 -1467 0
-1477 7967 0
-1504 7967 0
-7967 1463 1512 1498 1504 1406 1492 1394 1437 1534 1491 1443 1467 1401 1456 1487 1482 1435 1409 1480 1419 1455 1523 1393 1428 1458 1536 1522 1472 1484 1469 1503 1474 1485 1490 1520 1453 1524 1432 1399 1533 1516 1509 1479 1433 1413 1518 1446 1411 1434 1441 1449 1494 1462 1489 1417 1430 1477 1426 1531 1444 0
-1398 7977 0
-1402 7977 0
-1404 7977 0
-1408 7977 0
-1410 7977 0
7977 -1415 0
-1424 7977 0
-1425 7977 0
-1436 7977 0
-1438 7977 0
-1439 7977 0
-1440 7977 0
-1447 7977 0
7977 -1450 0
-1454 7977 0
-1461 7977 0
-1466 7977 0
-1473 7977 0
-1476 7977 0
-1483 7977 0
-1486 7977 0
-1488 7977 0
-1495 7977 0
-1501 7977 0
-1511 7977 0
-1517 7977 0
7977 -1519 0
-1521 7977 0
-1526 7977 0
-1529 7977 0
-1532 7977 0
-7977 1398 1483 1537 1540 1510 1529 1507 1470 1505 1539 1402 1476 1397 1486 1425 1420 1493 1464 1422 1415 1451 1542 1448 1461 1521 1478 1439 1440 1519 1438 1535 1450 1427 1481 1466 1408 1508 1514 1495 1497 1532 1473 1530 1436 1447 1412 1496 1517 1410 1454 1526 1459 1404 1501 1423 1424 1528 1488 1511 1452 0
-1426 7987 0
7987 -1432 0
-1437 7987 0
-1439 7987 0
-1488 7987 0
7987 -1497 0
-1523 7987 0
-7987 1397 1466 1505 1510 1537 1503 1507 1530 1523 1539 1483 1528 1514 1490 1415 1478 1437 1488 1497 1520 1479 1477 1398 1511 1447 1436 1411 1425 1443 1452 1486 1450 1487 1422 1536 1469 1441 1509 1473 1420 1426 1423 1461 1481 1412 1534 1419 1464 1467 1448 1432 1428 1413 1517 1417 1435 1439 1434 1495 1459 0
-1430 8007 0
-1433 8007 0
-1472 8007 0
8007 -1489 0
-1504 8007 0
8007 -1515 0
-1518 8007 0
-1527 8007 0
-8007 1463 1485 1475 1498 1527 1484 1513 1491 1416 1502 1468 1494 1409 1541 1500 1531 1492 1516 1504 1474 1403 1455 1515 1444 1430 1482 1538 1524 1445 1460 1421 1449 1533 1401 1472 1489 1399 1458 1433 1414 1442 1446 1407 1453 1522 1462 1456 1418 1518 1394 1525 1405 1512 1400 1406 1480 1457 1431 1393 1429 0
8017 -1489 0
-1504 8017 0
-1521 8017 0
8017 -1522 0
-8017 1410 1463 1474 1393 1470 1472 1489 1484 1519 1504 1508 1449 1455 1444 1531 1401 1456 1453 1512 1521 1451 1438 1529 1480 1524 1424 1476 1409 1491 1492 1493 1496 1542 1427 1406 1535 1408 1516 1533 1522 1394 1485 1462 1399 1440 1454 1430 1518 1433 1458 1501 1494 1482 1446 1526 1532 1402 1498 1540 1404 0
8027 -1397 0
8027 -1398 0
8027 -1400 0
8027 -1403 0
8027 -1405 0
8027 -1415 0
8027 -1416 0
-1420 8027 0
8027 -1422 0
-1423 8027 0
8027 -1431 0
8027 -1439 0
-1445 8027 0
8027 -1447 0
8027 -1448 0
8027 -1450 0
8027 -1452 0
-1457 8027 0
-1459 8027 0
-1460 8027 0
8027 -1461 0
8027 -1473 0
-1478 8027 0
8027 -1481 0
-1483 8027 0
-1486 8027 0
-1488 8027 0
8027 -1502 0
-1505 8027 0
8027 -1507 0
-8027 1397 1468 1464 1510 1420 1475 1445 1415 1500 1507 1495 1473 1541 1525 1511 1514 1488 1418 1412 1528 1461 1460 1530 1513 1425 1497 1439 1457 1405 1486 1502 1398 1478 1403 1538 1450 1416 1421 1527 1452 1431 1481 1423 1459 1414 1466 1422 1407 1447 1436 1483 1429 1505 1442 1400 1448 1515 1537 1539 1517 0
-1443 8037 0
-8037 1395 1506 1432 1487 1520 1435 1536 1509 1499 1411 1534 1417 1490 1465 1503 1396 1479 1443 1471 1469 1434 1437 1426 1441 1419 1428 1523 1413 1467 1477 0
-152 8039 0
-155 8039 0
8039 -159 0
-167 8039 0
-170 8039 0
-175 8039 0
-178 8039 0
-188 8039 0
-191 8039 0
-8039 175 152 155 191 159 170 178 167 188 0
-897 8041 0
-898 8041 0
-905 8041 0
-907 8041 0
-909 8041 0
-916 8041 0
-918 8041 0
-920 8041 0
-923 8041 0
-931 8041 0
-933 8041 0
-944 8041 0
-947 8041 0
-959 8041 0
-962 8041 0
-967 8041 0
-970 8041 0
-973 8041 0
-977 8041 0
-1001 8041 0
-1002 8041 0
-1004 8041 0
-1008 8041 0
-1015 8041 0
-1017 8041 0
-1027 8041 0
-1029 8041 0
-1040 8041 0
-1043 8041 0
-1047 8043 0
-1048 8043 0
-1052 8043 0
-1055 8043 0
-1057 8043 0
-1059 8043 0
-1066 8043 0
-1068 8043 0
-1070 8043 0
-1073 8043 0
-1081 8043 0
-1083 8043 0
-1094 8043 0
-1097 8043 0
-1109 8043 0
-1112 8043 0
-1117 8043 0
-1120 8043 0
-1123 8043 0
-1151 8043 0
-1158 8043 0
-1165 8043 0
-1167 8043 0
-1177 8043 0
-1179 8043 0
-1190 8043 0
-1193 8043 0
-1593 8045 0
-1594 8045 0
-1598 8045 0
-1601 8045 0
-1603 8045 0
-1605 8045 0
-1612 8045 0
8045 -1614 0
-1616 8045 0
8045 -1619 0
-1627 8045 0
-1629 8045 0
-1640 8045 0
-1643 8045 0
-1655 8045 0
-1658 8045 0
-1663 8045 0
-1666 8045 0
-1673 8045 0
-1697 8045 0
-1698 8045 0
-1700 8045 0
-1704 8045 0
-1711 8045 0
-1713 8045 0
-1723 8045 0
-1725 8045 0
-1736 8045 0
-1739 8045 0
-2137 8047 0
-2141 8047 0
-2144 8047 0
-2152 8047 0
-2157 8047 0
-2168 8047 0
-2173 8047 0
-2179 8047 0
-2181 8047 0
-8047 2168 2137 2157 2173 2181 2144 2141 2152 2179 0
-8041 -8039 0
-8043 -8039 0
-8045 -8039 0
-8047 -8039 0
-8041 -8043 0
-8041 -8045 0
-8041 -8047 0
-8043 -8045 0
-8047 -8043 0
-8047 -8045 0
-8049 0
-8050 0
-951 8051 0
-1000 8051 0
-8051 934 964 921 982 948 992 932 919 903 986 951 915 896 979 1014 930 1000 939 943 945 955 928 911 936 935 958 960 981 913 969 971 946 976 937 993 989 984 908 957 1018 991 895 974 994 996 987 1005 1006 1011 901 965 1020 1022 1024 1025 1026 1033 1035 1036 1038 0
-8052 0
-1046 8053 0
-1065 8053 0
-1080 8053 0
-1084 8053 0
-1089 8053 0
-1101 8053 0
-1107 8053 0
-1108 8053 0
-1114 8053 0
-1115 8053 0
-1124 8053 0
-1129 8053 0
-1132 8053 0
-1136 8053 0
-1142 8053 0
-1164 8053 0
-1172 8053 0
-1188 8053 0
-8053 1168 1119 1085 1110 1124 1051 1098 1071 1065 1161 1107 1108 1114 1144 1126 1095 1142 1172 1143 1080 1136 1053 1096 1156 1069 1188 1086 1105 1129 1046 1063 1082 1134 1137 1132 1164 1115 1131 1078 1089 1045 1141 1121 1093 1146 1087 1155 1139 1185 1061 1101 1084 1170 1174 1176 1175 1150 1058 1183 1186 0
-8054 0
-1656 8055 0
-1672 8055 0
-1702 8055 0
-1710 8055 0
-8055 1688 1677 1696 1604 1667 1670 1641 1685 1626 1642 1692 1683 1718 1651 1653 1672 1702 1675 1734 1710 1611 1592 1630 1656 1633 1707 1690 1644 1639 1660 1714 1687 1732 1635 1701 1721 1599 1665 1654 1722 1628 1632 1682 1647 1661 1680 1720 1689 1617 1591 1678 1609 1597 1716 1631 1615 1607 1729 1624 1731 0
-8056 0
-2138 8057 0
-2139 8057 0
-2140 8057 0
-2143 8057 0
-2146 8057 0
-2151 8057 0
-2155 8057 0
-2156 8057 0
-2162 8057 0
-2163 8057 0
-2164 8057 0
-2172 8057 0
-2177 8057 0
-2180 8057 0
-8057 2166 2142 2159 2158 2150 2178 2145 2153 2162 2174 2156 2149 2171 2172 2155 2184 2148 2169 2161 2146 2160 2175 2170 2143 2177 2147 2167 2163 2164 2165 2176 2180 2182 2151 2154 2140 2183 2139 2138 0
-8058 0
-8051 -8053 -8055 0
-8051 -8053 -8057 0
-8053 -8055 -8057 0
8053 8051 8055 8052 8050 8054 8049 8056 8058 0
8053 8057 8051 8052 8050 8054 8056 8049 8058 0
8057 8053 8055 8049 8054 8050 8056 8052 8058 0
-153 8059 0
-154 8059 0
-156 8059 0
-157 8059 0
-160 8059 0
-161 8059 0
-163 8059 0
-164 8059 0
-166 8059 0
-171 8059 0
-172 8059 0
-173 8059 0
-174 8059 0
-176 8059 0
-179 8059 0
-180 8059 0
-181 8059 0
-182 8059 0
-184 8059 0
-186 8059 0
-187 8059 0
-189 8059 0
-190 8059 0
-192 8059 0
-8059 173 157 186 187 198 151 177 194 179 181 184 162 160 189 176 185 161 158 164 154 174 196 182 171 183 197 165 169 193 166 156 190 195 168 163 180 153 172 192 0
-8060 0
-904 8061 0
-912 8061 0
-963 8061 0
-972 8061 0
-975 8061 0
-980 8061 0
-988 8061 0
-998 8061 0
-1007 8061 0
-1010 8061 0
-1023 8061 0
-1037 8061 0
-8061 910 900 929 922 998 914 950 995 952 925 912 926 1012 938 917 980 990 941 927 1044 953 1034 954 972 961 966 1013 942 906 975 978 988 983 1016 968 963 940 997 949 985 1003 1007 1009 1010 904 956 999 1019 1021 1023 899 1028 1031 1032 1030 1037 924 1041 1042 1039 0
-8062 0
-1079 8063 0
-1090 8063 0
-1100 8063 0
-1135 8063 0
-1145 8063 0
-1157 8063 0
-1166 8063 0
-1171 8063 0
-1187 8063 0
-8063 1099 1049 1067 1103 1125 1128 1194 1122 1118 1147 1192 1056 1130 1135 1163 1148 1191 1166 1138 1064 1113 1074 1149 1092 1111 1102 1169 1100 1159 1079 1162 1088 1145 1062 1178 1157 1090 1184 1133 1106 1072 1140 1054 1091 1075 1153 1050 1104 1181 1173 1076 1116 1060 1187 1180 1189 1182 1160 1077 1171 0
-8064 0
-1596 8065 0
-1602 8065 0
-1613 8065 0
-1621 8065 0
-1636 8065 0
-1638 8065 0
-1648 8065 0
-1662 8065 0
-1671 8065 0
-1679 8065 0
-1686 8065 0
-1703 8065 0
-1708 8065 0
-1712 8065 0
-1735 8065 0
-8065 1705 1623 1646 1668 1652 1706 1645 1596 1648 1691 1625 1662 1664 1679 1610 1676 1650 1686 1659 1715 1620 1740 1621 1712 1613 1622 1618 1703 1695 1708 1602 1727 1606 1671 1649 1657 1634 1724 1694 1636 1638 1681 1595 1608 1726 1709 1728 1699 1674 1717 1637 1684 1719 1730 1733 1693 1735 1737 1738 1600 0
-8066 0
-8067 0
-8068 0
-8061 -8059 -8063 0
-8063 -8065 -8059 0
-8061 -8065 -8063 0
8059 8061 8063 8062 8060 8064 8066 8067 8068 0
8059 8065 8063 8060 8064 8062 8066 8067 8068 0
8065 8061 8063 8060 8064 8062 8066 8067 8068 0
-157 8069 0
-158 8069 0
-176 8069 0
-186 8069 0
-8069 186 158 173 161 176 157 194 164 174 179 196 195 177 172 193 0
-8070 0
8071 -980 0
8071 -988 0
-8072 0
-1072 8073 0
-1074 8073 0
-1089 8073 0
-1099 8073 0
-1102 8073 0
-1116 8073 0
-1118 8073 0
-1121 8073 0
-1129 8073 0
-1131 8073 0
-1135 8073 0
-1159 8073 0
-8073 1135 1091 1189 1071 1074 1119 1050 1102 1116 1100 1125 1131 1069 1084 1147 1075 1080 1172 1111 1065 1113 1095 1149 1138 1104 1099 1064 1182 1067 1121 1161 1157 1166 1159 1078 1133 1180 1142 1162 1188 1093 1191 1139 1118 1155 1088 1140 1086 1087 1163 1072 1130 1049 1175 1169 1129 1077 1186 1089 1063 0
-8074 0
-1596 8075 0
-1610 8075 0
-1611 8075 0
-1615 8075 0
-1617 8075 0
-1620 8075 0
-1621 8075 0
-1626 8075 0
-1630 8075 0
-1632 8075 0
-1635 8075 0
-1639 8075 0
-1641 8075 0
-1646 8075 0
-1648 8075 0
-1657 8075 0
-1662 8075 0
-1667 8075 0
-1671 8075 0
-1675 8075 0
-1676 8075 0
-1677 8075 0
-1679 8075 0
-1681 8075 0
-1685 8075 0
-1686 8075 0
-1688 8075 0
-1693 8075 0
-1695 8075 0
-1701 8075 0
-1703 8075 0
-1705 8075 0
-1707 8075 0
-1709 8075 0
-1712 8075 0
-1718 8075 0
-1721 8075 0
-1728 8075 0
-1732 8075 0
-1734 8075 0
-8075 1688 1610 1645 1667 1705 1609 1703 1634 1621 1646 1662 1708 1664 1718 1684 1648 1676 1623 1618 1685 1695 1657 1712 1620 1659 1686 1737 1611 1726 1709 1641 1626 1701 1693 1639 1650 1735 1633 1613 1632 1715 1734 1677 1595 1675 1637 1679 1707 1635 1630 1624 1617 1681 1671 1596 1728 1732 1721 1665 1615 0
-8076 0
-2140 8077 0
-2142 8077 0
-2143 8077 0
-2145 8077 0
-2146 8077 0
-2147 8077 0
-2151 8077 0
-2162 8077 0
-2163 8077 0
-2165 8077 0
-2170 8077 0
-2171 8077 0
-2175 8077 0
-2176 8077 0
-2177 8077 0
-2178 8077 0
-2180 8077 0
-8077 2165 2145 2149 2142 2158 2153 2182 2171 2156 2166 2178 2177 2147 2180 2150 2170 2162 2140 2176 2143 2151 2175 2146 2163 0
-8078 0
-8069 -8077 -8073 0
-8069 -8077 -8075 0
-8073 -8075 -8077 0
8073 8075 8069 8077 8074 8072 8076 8070 8078 0
-8079 0
-8080 0
-898 8081 0
-904 8081 0
-906 8081 0
-910 8081 0
-912 8081 0
-953 8081 0
-956 8081 0
-972 8081 0
-973 8081 0
-978 8081 0
-995 8081 0
-1001 8081 0
-1008 8081 0
-1021 8081 0
-1023 8081 0
-1042 8081 0
-1044 8081 0
-8081 956 942 1008 972 1001 978 1044 995 940 898 1042 926 967 953 998 906 1034 929 904 1003 912 1010 910 1023 897 1031 1028 1037 1021 973 0
-8082 0
-1047 8083 0
-1048 8083 0
-1054 8083 0
-1056 8083 0
-1060 8083 0
-1062 8083 0
-1076 8083 0
-1079 8083 0
-1090 8083 0
-1092 8083 0
-1103 8083 0
-1106 8083 0
-1117 8083 0
-1122 8083 0
-1123 8083 0
-1145 8083 0
-1151 8083 0
-1153 8083 0
-1158 8083 0
-1171 8083 0
-1173 8083 0
-1178 8083 0
-1181 8083 0
-1184 8083 0
-1187 8083 0
-1192 8083 0
-1194 8083 0
-8083 1184 1079 1128 1173 1048 1192 1103 1054 1047 1160 1158 1106 1117 1122 1123 1145 1187 1194 1060 1151 1153 1178 1181 1171 1062 1076 1148 1056 1090 1092 0
-8084 0
-1593 8085 0
-1594 8085 0
-1600 8085 0
-1602 8085 0
-1606 8085 0
-1608 8085 0
-1622 8085 0
-1625 8085 0
-1636 8085 0
-1638 8085 0
-1649 8085 0
-1652 8085 0
-1663 8085 0
-1668 8085 0
-1674 8085 0
-1691 8085 0
-1694 8085 0
-1697 8085 0
-1699 8085 0
-1704 8085 0
-1706 8085 0
-1717 8085 0
-1719 8085 0
-1724 8085 0
-1727 8085 0
-1730 8085 0
-1733 8085 0
-1738 8085 0
-1740 8085 0
-8085 1697 1594 1717 1652 1740 1706 1636 1691 1663 1622 1608 1638 1724 1600 1625 1649 1674 1593 1733 1704 1669 1606 1727 1738 1668 1699 1602 1719 1730 1694 0
-8086 0
-2137 8087 0
-2138 8087 0
-2139 8087 0
-2141 8087 0
-2144 8087 0
-2148 8087 0
-2152 8087 0
-2154 8087 0
-2155 8087 0
-2157 8087 0
-2159 8087 0
-2160 8087 0
-2161 8087 0
-2164 8087 0
-2167 8087 0
-2168 8087 0
-2169 8087 0
-2172 8087 0
-2173 8087 0
-2174 8087 0
-2179 8087 0
-2181 8087 0
-2183 8087 0
-2184 8087 0
-8087 2173 2138 2167 2168 2159 2141 2181 2179 2172 2154 2137 2144 2148 2184 2183 2161 2155 2152 2174 2139 2169 2160 2157 2164 0
-8088 0
-8081 -8083 0
-8081 -8085 0
-8081 -8087 0
-8083 -8085 0
-8083 -8087 0
-8085 -8087 0
8081 8083 8085 8087 8080 8084 8079 8086 8082 8088 0
-151 8089 0
-152 8089 0
-153 8089 0
-154 8089 0
-155 8089 0
-156 8089 0
-166 8089 0
-167 8089 0
-168 8089 0
-169 8089 0
-184 8089 0
-187 8089 0
-188 8089 0
-189 8089 0
-190 8089 0
-191 8089 0
-192 8089 0
-8089 162 159 198 187 183 178 185 184 188 175 160 166 151 181 191 180 163 189 169 190 154 165 167 168 155 192 153 156 170 197 152 171 182 0
-8090 0
-951 8091 0
-8091 982 896 959 964 965 1000 903 1014 1017 908 909 948 920 923 931 932 902 911 944 1024 1040 933 918 947 895 907 993 905 935 951 960 955 958 976 977 974 984 957 901 970 991 1015 996 1018 1002 1004 1006 962 946 994 987 986 916 1020 1027 1029 1033 1035 1026 1043 0
-8092 0
-1055 8093 0
-1059 8093 0
-1066 8093 0
-1070 8093 0
-1083 8093 0
-1094 8093 0
-1101 8093 0
-1124 8093 0
-1136 8093 0
-1137 8093 0
-1150 8093 0
-1164 8093 0
-8093 1150 1124 1070 1108 1085 1045 1127 1132 1176 1143 1046 1144 1168 1053 1059 1177 1134 1152 1167 1112 1073 1098 1110 1096 1190 1066 1193 1126 1058 1109 1068 1061 1052 1146 1120 1136 1137 1114 1165 1051 1141 1097 1081 1101 1082 1154 1057 1107 1055 1105 1164 1083 1174 1156 1170 1115 1179 1094 1183 1185 0
-8094 0
-1661 8095 0
-1670 8095 0
-1672 8095 0
-1687 8095 0
-1702 8095 0
-1710 8095 0
-8095 1640 1591 1619 1670 1598 1653 1672 1656 1692 1683 1702 1647 1690 1711 1739 1605 1689 1714 1696 1654 1627 1716 1680 1592 1700 1614 1678 1651 1710 1722 1601 1731 1687 1655 1643 1631 1658 1642 1628 1713 1682 1629 1607 1603 1666 1720 1604 1644 1723 1673 1597 1660 1599 1736 1616 1698 1661 1725 1729 1612 0
-8096 0
-8097 0
-8098 0
-8093 -8095 -8089 0
8089 8091 8093 8092 8090 8094 8096 8097 8098 0
8093 8095 8089 8090 8094 8092 8096 8097 8098 0
8095 8093 8091 8090 8094 8092 8096 8097 8098 0
-151 8099 0
-153 8099 0
-160 8099 0
-162 8099 0
-171 8099 0
-180 8099 0
-181 8099 0
-184 8099 0
-185 8099 0
-190 8099 0
-192 8099 0
-197 8099 0
-198 8099 0
-8099 162 151 198 187 163 169 183 190 160 197 192 181 154 168 165 171 180 185 184 189 153 166 156 182 0
-8100 0
-951 8101 0
-957 8101 0
-8101 929 964 956 1014 906 904 951 912 911 995 926 1024 932 935 940 942 1044 948 1000 1018 946 986 910 993 960 965 903 972 908 895 978 901 984 957 958 955 991 974 896 996 987 976 998 1006 1010 1003 994 953 1021 1023 982 1020 1026 1031 1033 1034 1035 1037 1042 1028 0
-8102 0
-1046 8103 0
-1060 8103 0
-1079 8103 0
-1090 8103 0
-1103 8103 0
-1105 8103 0
-1106 8103 0
-1107 8103 0
-1114 8103 0
-1115 8103 0
-1136 8103 0
-1150 8103 0
-1171 8103 0
-1187 8103 0
-8103 1144 1098 1103 1061 1168 1183 1053 1132 1124 1056 1101 1045 1171 1134 1106 1176 1107 1187 1079 1114 1148 1146 1054 1150 1145 1082 1110 1164 1128 1143 1126 1194 1058 1051 1141 1085 1096 1108 1105 1115 1062 1122 1136 1160 1178 1185 1170 1156 1173 1174 1137 1076 1181 1046 1090 1184 1153 1092 1192 1060 0
-8104 0
-1651 8105 0
-1653 8105 0
-1672 8105 0
-1687 8105 0
-1689 8105 0
-1710 8105 0
-1720 8105 0
-1722 8105 0
-8105 1699 1680 1668 1647 1638 1652 1670 1628 1608 1602 1656 1653 1592 1717 1706 1599 1702 1692 1687 1651 1625 1724 1689 1682 1683 1740 1696 1660 1622 1597 1722 1674 1730 1600 1607 1720 1591 1691 1649 1604 1714 1731 1654 1642 1694 1636 1644 1672 1727 1606 1661 1678 1690 1719 1710 1716 1631 1729 1733 1738 0
-8106 0
-2138 8107 0
-2167 8107 0
-2169 8107 0
-2172 8107 0
-8107 2172 2138 2148 2160 2167 2154 2164 2161 2184 2174 2183 2169 2155 2159 2139 0
-8108 0
-8101 -8103 -8099 0
-8107 -8099 -8105 0
8101 8103 8099 8107 8100 8104 8106 8102 8108 0
8105 8101 8099 8107 8104 8100 8106 8102 8108 0
8105 8103 8099 8107 8104 8102 8106 8100 8108 0
8105 8103 8101 8107 8104 8102 8106 8100 8108 0
-8109 0
-8110 0
-899 8111 0
-900 8111 0
-922 8111 0
-924 8111 0
-925 8111 0
-927 8111 0
-949 8111 0
-950 8111 0
-968 8111 0
-980 8111 0
-985 8111 0
-988 8111 0
-999 8111 0
-1007 8111 0
-1009 8111 0
-1030 8111 0
-1032 8111 0
-8111 900 1012 905 918 925 949 1009 931 988 1016 1040 1013 923 980 924 902 907 933 916 927 944 947 938 914 917 954 920 961 922 941 909 1017 970 975 977 959 983 966 999 968 997 950 1002 1004 1007 1015 990 962 963 952 985 1019 1027 1029 899 1032 1030 1039 1041 1043 0
-8112 0
-1059 8113 0
-1094 8113 0
-1099 8113 0
-1100 8113 0
-1102 8113 0
-1109 8113 0
-1116 8113 0
-1118 8113 0
-1157 8113 0
-1159 8113 0
-1177 8113 0
-1193 8113 0
-8113 1193 1057 1135 1165 1127 1162 1116 1149 1055 1163 1091 1088 1159 1104 1152 1050 1111 1075 1099 1113 1191 1072 1066 1169 1179 1177 1112 1133 1180 1068 1120 1125 1190 1130 1067 1138 1167 1147 1083 1157 1059 1140 1100 1109 1094 1154 1073 1081 1102 1074 1070 1166 1064 1052 1077 1118 1182 1189 1097 1049 0
-8114 0
-1595 8115 0
-1596 8115 0
-1613 8115 0
-1619 8115 0
-1621 8115 0
-1623 8115 0
-1634 8115 0
-1637 8115 0
-1645 8115 0
-1658 8115 0
-1659 8115 0
-1662 8115 0
-1664 8115 0
-1684 8115 0
-1703 8115 0
-1705 8115 0
-1708 8115 0
-1709 8115 0
-1711 8115 0
-1725 8115 0
-1726 8115 0
-1735 8115 0
-1737 8115 0
-8115 1662 1596 1645 1640 1643 1728 1673 1619 1627 1684 1686 1620 1598 1648 1703 1618 1621 1614 1658 1695 1676 1659 1646 1698 1723 1705 1712 1655 1629 1650 1708 1711 1664 1612 1605 1613 1715 1623 1634 1725 1681 1671 1657 1700 1739 1610 1616 1709 1666 1601 1603 1637 1693 1595 1726 1735 1736 1737 1679 1713 0
-8116 0
-2137 8117 0
-2140 8117 0
-2143 8117 0
-2144 8117 0
-2149 8117 0
-2150 8117 0
-2152 8117 0
-2162 8117 0
-2163 8117 0
-2165 8117 0
-2166 8117 0
-2168 8117 0
-2170 8117 0
-2171 8117 0
-2175 8117 0
-2176 8117 0
-2178 8117 0
-2179 8117 0
-2180 8117 0
-2182 8117 0
-8117 2182 2144 2151 2146 2149 2158 2165 2173 2178 2147 2170 2162 2145 2137 2168 2177 2156 2175 2180 2142 2150 2171 2157 2163 2181 2140 2153 2141 2166 2176 2152 2143 2179 0
-8118 0
-8111 -8113 -8117 0
-8113 -8115 -8117 0
8111 8113 8115 8112 8110 8114 8109 8116 8118 0
8111 8117 8113 8112 8110 8114 8116 8109 8118 0
8111 8117 8115 8112 8114 8110 8116 8109 8118 0
8117 8115 8113 8109 8114 8110 8116 8112 8118 0
-152 8119 0
-155 8119 0
-157 8119 0
-158 8119 0
8119 -159 0
-161 8119 0
-164 8119 0
-167 8119 0
-170 8119 0
-172 8119 0
-173 8119 0
-174 8119 0
-175 8119 0
-176 8119 0
-177 8119 0
-178 8119 0
-179 8119 0
-186 8119 0
-188 8119 0
-191 8119 0
-193 8119 0
-194 8119 0
-195 8119 0
-8119 176 155 157 194 152 173 164 161 159 178 175 179 188 191 177 167 186 195 193 174 172 170 158 196 0
-898 8121 0
-913 8121 0
-915 8121 0
-919 8121 0
-921 8121 0
-928 8121 0
-930 8121 0
-934 8121 0
-937 8121 0
-969 8121 0
-979 8121 0
-989 8121 0
-1001 8121 0
-1005 8121 0
-1008 8121 0
-1011 8121 0
-1022 8121 0
-1038 8121 0
-1047 8123 0
-1048 8123 0
-1063 8123 0
-1065 8123 0
-1069 8123 0
-1071 8123 0
-1080 8123 0
-1087 8123 0
-1089 8123 0
-1093 8123 0
-1095 8123 0
-1117 8123 0
-1119 8123 0
-1123 8123 0
-1129 8123 0
-1131 8123 0
-1142 8123 0
-1151 8123 0
-1158 8123 0
-1172 8123 0
-1175 8123 0
-1186 8123 0
-1188 8123 0
-8123 1089 1071 1158 1047 1139 1121 1080 1087 1065 1119 1063 1069 1117 1078 1155 1175 1151 1131 1188 1172 1084 1123 1186 1093 1142 1129 1095 1161 1048 1086 0
-1593 8125 0
-1594 8125 0
-1609 8125 0
-1611 8125 0
-1617 8125 0
-1624 8125 0
-1626 8125 0
-1630 8125 0
-1632 8125 0
-1633 8125 0
-1635 8125 0
-1665 8125 0
-1667 8125 0
-1669 8125 0
-1675 8125 0
-1677 8125 0
-1685 8125 0
-1688 8125 0
8125 -1697 0
-1704 8125 0
-1707 8125 0
-1718 8125 0
-1721 8125 0
-1732 8125 0
-1734 8125 0
-8121 -8119 0
-8123 -8119 0
-8125 -8119 0
-8121 -8123 0
-8123 -8125 0
-204 8129 0
-207 8129 0
-208 8129 0
-216 8129 0
-217 8129 0
-218 8129 0
-225 8129 0
-226 8129 0
-239 8129 0
-240 8129 0
-249 8129 0
-250 8129 0
-264 8129 0
-265 8129 0
-276 8129 0
-280 8129 0
-310 8129 0
-314 8129 0
-323 8129 0
-324 8129 0
-335 8129 0
-346 8129 0
-553 8131 0
-556 8131 0
-570 8131 0
-589 8131 0
-8131 569 594 574 589 547 570 565 553 556 0
8133 -1347 0
-1348 8133 0
-1351 8133 0
-1365 8133 0
8133 -1368 0
-1383 8133 0
-1386 8133 0
-1389 8133 0
-1392 8133 0
-8133 1383 1347 1392 1386 1368 1348 1351 1365 1389 0
-1545 8135 0
-1548 8135 0
-1549 8135 0
-1566 8135 0
-1569 8135 0
-1572 8135 0
-1575 8135 0
-1587 8135 0
-1590 8135 0
-8135 1590 1545 1569 1575 1572 1587 1548 1549 1566 0
-1743 8137 0
-1744 8137 0
-1747 8137 0
-1761 8137 0
-1764 8137 0
-1779 8137 0
-1782 8137 0
-1788 8137 0
-8129 -8131 0
-8129 -8133 0
-8129 -8135 0
-8137 -8129 0
-8131 -8133 0
-8135 -8131 0
-8137 -8131 0
-8135 -8133 0
-8137 -8133 0
-8137 -8135 0
-201 8139 0
8139 -210 0
8139 -214 0
-237 8139 0
-238 8139 0
-247 8139 0
-248 8139 0
-253 8139 0
-257 8139 0
-266 8139 0
-267 8139 0
-269 8139 0
8139 -270 0
8139 -271 0
-283 8139 0
-284 8139 0
-290 8139 0
8139 -292 0
-293 8139 0
-302 8139 0
-312 8139 0
-316 8139 0
-319 8139 0
-320 8139 0
8139 -325 0
8139 -341 0
-1361 8143 0
-1378 8143 0
8143 -1388 0
8145 -1551 0
8145 -1563 0
8145 -1570 0
8145 -1573 0
8145 -1582 0
8147 -1759 0
8147 -1771 0
-8143 -8145 -8139 0
-8143 -8139 -8147 0
-8143 -8145 -8147 0
-262 8149 0
8149 -278 0
-304 8149 0
-322 8149 0
-332 8149 0
-348 8149 0
-8149 206 291 262 263 224 298 258 305 202 212 223 309 299 260 243 277 205 300 254 285 255 268 261 348 234 296 273 278 330 219 211 286 220 203 242 339 231 274 301 233 232 308 244 304 317 321 318 322 241 329 332 331 334 297 340 333 344 343 347 259 0
-559 8151 0
8151 -590 0
8153 -1346 0
8153 -1381 0
8155 -1561 0
8155 -1584 0
-8149 -8153 -8155 0
-8151 -8153 -8155 0
-202 8159 0
-254 8159 0
-260 8159 0
-277 8159 0
-291 8159 0
-298 8159 0
-305 8159 0
-318 8159 0
-328 8159 0
-337 8159 0
-338 8159 0
-347 8159 0
-348 8159 0
-8159 230 291 281 254 228 220 305 221 262 263 327 222 299 277 234 227 202 224 245 243 255 287 260 246 252 298 348 223 236 235 244 261 233 285 286 288 268 294 295 296 297 282 229 251 304 306 307 219 278 318 317 321 322 328 331 332 337 338 347 203 0
-8160 0
-8161 0
-8162 0
-1388 8163 0
-8163 1376 1352 1363 1357 1384 1371 1367 1391 1353 1381 1380 1379 1358 1345 1361 1377 1364 1366 1375 1362 1385 1387 1360 1346 1388 1390 1382 1378 1354 1374 1355 1350 1369 1359 1372 1349 1370 1373 1356 0
-8164 0
-8165 0
-8166 0
-1741 8167 0
-1749 8167 0
-1756 8167 0
-1757 8167 0
-1758 8167 0
-1759 8167 0
-1760 8167 0
-1763 8167 0
-1771 8167 0
-1772 8167 0
-1774 8167 0
-1775 8167 0
-1777 8167 0
-1780 8167 0
-1783 8167 0
-8167 1756 1745 1759 1772 1783 1771 1778 1765 1775 1757 1787 1777 1780 1763 1758 1750 1774 1762 1776 1773 1748 1786 1760 1781 1746 1749 1741 1742 1753 1754 1755 1784 1766 1767 1768 1769 1770 1751 1752 0
-8168 0
-8159 -8163 -8167 0
8163 8159 8161 8162 8160 8164 8165 8166 8168 0
8167 8163 8162 8160 8164 8165 8166 8161 8168 0
-205 8169 0
-212 8169 0
-232 8169 0
-273 8169 0
-300 8169 0
-301 8169 0
-309 8169 0
-310 8169 0
-329 8169 0
-333 8169 0
-334 8169 0
-340 8169 0
-343 8169 0
-344 8169 0
-8169 204 340 206 301 333 310 279 274 343 339 329 334 211 308 344 258 311 232 205 212 280 241 242 273 309 231 199 300 259 330 0
8173 -1345 0
-1346 8173 0
8173 -1347 0
8173 -1351 0
-1360 8173 0
-1365 8173 0
8173 -1368 0
8173 -1376 0
8173 -1379 0
8173 -1381 0
-1382 8173 0
8173 -1383 0
8173 -1386 0
8173 -1389 0
-1741 8177 0
-1742 8177 0
-1743 8177 0
-1744 8177 0
-1747 8177 0
-1752 8177 0
-1753 8177 0
-1754 8177 0
-1755 8177 0
-1756 8177 0
-1761 8177 0
-1764 8177 0
-1769 8177 0
-1770 8177 0
8177 -1772 0
8177 -1775 0
-1777 8177 0
-1778 8177 0
-1779 8177 0
-1780 8177 0
-1781 8177 0
-1782 8177 0
-1785 8177 0
-1788 8177 0
-8177 1756 1747 1764 1772 1775 1788 1780 1785 1770 1777 1744 1778 1779 1742 1743 1769 1782 1761 1752 1741 1781 1755 1753 1754 0
-8169 -8173 0
-8169 -8177 0
-8177 -8173 0
-8179 201 264 250 271 302 346 325 257 272 214 253 319 213 313 312 218 269 217 226 289 225 210 316 266 275 240 314 267 200 345 216 207 265 256 283 248 209 237 292 276 293 303 290 270 247 239 249 320 323 208 238 215 336 315 324 326 284 341 335 342 0
-8180 0
-8181 0
-8182 0
-1347 8183 0
1369 1355 1352 1347 1386 1383 1367 1348 1351 1363 1368 1350 1388 1353 1375 1387 1361 1377 1389 1364 1390 1366 -8183 1362 1365 1391 1349 1380 1372 1378 1392 1354 1370 1371 0
-8184 0
-8185 0
-8186 0
-8187 1783 1749 1759 1760 1765 1763 1787 1782 1750 1762 1746 1771 1784 1744 1747 1761 1748 1757 1773 1774 1779 1776 1745 1785 1764 1786 1788 1743 1751 1758 1766 1767 1768 0
-8188 0
8179 8183 8181 8182 8180 8184 8185 8186 8188 0
8187 8179 8181 8182 8184 8185 8186 8180 8188 0
-201 8189 0
-269 8189 0
-8189 201 200 333 212 271 339 269 214 303 342 302 340 205 343 344 210 316 289 313 256 253 326 341 325 267 213 283 293 247 259 290 248 270 241 292 300 266 257 320 242 284 309 209 258 272 237 301 312 273 308 211 231 330 206 334 238 319 274 232 329 0
-8190 0
-8191 558 584 591 593 564 548 577 583 575 573 579 555 588 581 551 567 563 586 561 576 566 578 568 572 559 580 582 552 571 550 554 562 587 560 585 590 592 557 549 0
-8192 0
-8193 0
-8194 0
-1543 8195 0
-1544 8195 0
-1546 8195 0
-1558 8195 0
-1560 8195 0
-8195 1557 1547 1585 1564 1565 1562 1568 1551 1554 1553 1552 1544 1556 1560 1561 1567 1563 1543 1555 1550 1584 1570 1571 1573 1574 1558 1559 1581 1577 1576 1579 1582 1583 1578 1546 1586 1588 1589 1580 0
-8196 0
-8197 0
-8198 0
-8191 -8195 -8189 0
8189 8191 8190 8192 8193 8194 8196 8197 8198 0
8195 8189 8192 8193 8194 8190 8196 8197 8198 0
8195 8191 8192 8193 8194 8190 8196 8197 8198 0
-278 8199 0
-345 8199 0
-346 8199 0
-347 8199 0
-348 8199 0
-8199 254 278 262 223 347 239 299 277 285 348 297 255 243 263 265 240 335 286 275 249 305 203 220 268 202 296 207 332 233 219 291 218 298 224 261 250 276 217 234 264 304 346 225 260 314 315 317 318 321 322 323 208 215 324 216 336 345 226 244 331 0
-8200 0
-589 8201 0
-8201 558 589 588 591 551 547 548 564 579 594 592 593 583 580 557 582 549 567 569 553 559 570 587 574 562 563 565 581 550 585 566 590 556 0
-8202 0
-8203 0
-8204 0
-1568 8205 0
-8205 1586 1546 1565 1557 1561 1568 1559 1562 1569 1575 1590 1587 1549 1584 1585 1554 1581 1572 1547 1567 1543 1583 1588 1564 1545 1555 1548 1544 1556 1558 1580 1566 1589 0
-8206 0
-8207 0
-8208 0
-8205 -8201 -8199 0
8199 8201 8200 8202 8203 8204 8206 8207 8208 0
8205 8199 8202 8203 8204 8200 8206 8207 8208 0
-199 8209 0
-204 8209 0
-221 8209 0
-222 8209 0
-227 8209 0
-228 8209 0
-229 8209 0
-230 8209 0
-235 8209 0
-236 8209 0
-246 8209 0
-251 8209 0
-252 8209 0
-280 8209 0
-281 8209 0
-282 8209 0
-288 8209 0
-294 8209 0
-295 8209 0
-307 8209 0
-310 8209 0
-311 8209 0
-327 8209 0
-338 8209 0
-8209 204 310 199 227 311 281 229 251 230 307 245 246 221 236 228 235 280 222 288 294 295 306 252 279 282 327 328 337 338 287 0
-547 8211 0
-552 8211 0
-553 8211 0
-554 8211 0
-555 8211 0
-556 8211 0
-560 8211 0
-561 8211 0
-565 8211 0
-568 8211 0
-569 8211 0
-570 8211 0
-571 8211 0
-572 8211 0
-573 8211 0
-574 8211 0
-575 8211 0
-576 8211 0
-577 8211 0
-578 8211 0
-584 8211 0
-586 8211 0
8211 -589 0
-594 8211 0
-1545 8215 0
-1548 8215 0
-1549 8215 0
-1550 8215 0
-1551 8215 0
-1552 8215 0
-1560 8215 0
-1563 8215 0
-1570 8215 0
-1571 8215 0
-1572 8215 0
-1573 8215 0
-1574 8215 0
-1575 8215 0
-1576 8215 0
-1577 8215 0
-1578 8215 0
-1579 8215 0
-1582 8215 0
-1590 8215 0
-8215 1578 1566 1551 1550 1552 1545 1569 1563 1549 1570 1548 1571 1572 1573 1574 1575 1560 1579 1553 1577 1582 1587 1590 1576 0
-8209 -8211 0
-8209 -8215 0
-8215 -8211 0
-354 8219 0
-355 8219 0
-372 8219 0
-375 8219 0
-378 8219 0
-381 8219 0
-393 8219 0
-396 8219 0
-8219 396 351 372 375 393 378 381 354 355 0
-603 8221 0
-604 8221 0
-613 8221 0
-614 8221 0
-621 8221 0
-622 8221 0
-635 8221 0
-636 8221 0
-645 8221 0
-646 8221 0
-660 8221 0
-661 8221 0
-671 8221 0
-672 8221 0
-710 8221 0
-711 8221 0
-731 8221 0
-732 8221 0
-1789 8223 0
-1794 8223 0
-1797 8223 0
-1798 8223 0
-1805 8223 0
-1806 8223 0
-1807 8223 0
-1815 8223 0
-1816 8223 0
-1830 8223 0
-1839 8223 0
-1840 8223 0
-1870 8223 0
-1900 8223 0
-1901 8223 0
-1905 8223 0
8223 -1914 0
-1925 8223 0
-1926 8223 0
-1935 8223 0
-1936 8223 0
-8223 1913 1797 1866 1870 1789 1914 1829 1900 1936 1807 1798 1794 1854 1926 1935 1925 1865 1830 1901 1839 1806 1816 1815 1805 1840 1808 1869 1904 1855 1905 0
-1955 8225 0
-1956 8225 0
-1980 8225 0
-1989 8225 0
-2015 8225 0
-2050 8225 0
-2055 8225 0
-2063 8225 0
-2075 8225 0
-2085 8225 0
-2090 8227 0
-2093 8227 0
-2094 8227 0
-2112 8227 0
-2115 8227 0
-2128 8227 0
-2129 8227 0
-2132 8227 0
-2136 8227 0
-8227 2136 2093 2132 2112 2115 2090 2128 2094 2129 0
-8219 -8221 0
-8219 -8223 0
-8225 -8219 0
-8227 -8219 0
-8221 -8223 0
-8225 -8227 0
-357 8229 0
-376 8229 0
-379 8229 0
-388 8229 0
-8229 388 359 376 357 379 380 382 366 356 377 385 369 358 384 383 0
-8230 0
-597 8231 0
-653 8231 0
-667 8231 0
-678 8231 0
-679 8231 0
-689 8231 0
-698 8231 0
-703 8231 0
-708 8231 0
-709 8231 0
-8231 689 597 702 685 667 708 737 609 738 723 734 703 690 668 662 715 699 631 596 709 647 634 641 686 666 698 679 721 606 649 623 605 684 644 663 688 716 683 633 665 618 652 680 691 632 626 643 624 653 712 648 733 678 617 724 642 625 722 677 610 0
-8232 0
-1843 8233 0
-1879 8233 0
-1880 8233 0
-8233 1884 1828 1862 1879 1903 1874 1871 1846 1842 1847 1878 1873 1811 1932 1841 1791 1837 1915 1883 1918 1825 1826 1818 1835 1856 1857 1859 1860 1861 1838 1880 1872 1927 1928 1877 1817 1827 1819 1836 1931 1812 1882 1892 1800 1896 1897 1820 1803 1893 1804 1799 1790 1843 1917 1916 1906 1909 1910 1902 1885 0
-8234 0
-1987 8235 0
8235 -2029 0
-8235 2029 2043 2052 2056 1950 1961 2022 2060 1954 2066 2028 2059 2006 1986 1940 1993 1977 1967 2032 1997 2030 2068 1941 2078 2010 2027 1988 1978 1969 2033 2012 1987 2007 2024 1968 1992 2065 1953 1949 1996 2042 1970 1962 2081 2021 2046 1975 2047 2009 1976 1991 2034 2035 1985 2023 2067 2011 2077 2053 2082 0
-8236 0
-2095 8237 0
-2096 8237 0
-2097 8237 0
-2101 8237 0
-2106 8237 0
-2107 8237 0
-2109 8237 0
-2110 8237 0
-2111 8237 0
-2113 8237 0
-2114 8237 0
-2116 8237 0
-2117 8237 0
-2119 8237 0
-2120 8237 0
-2121 8237 0
-2122 8237 0
-2123 8237 0
-2134 8237 0
-2135 8237 0
-8237 2134 2122 2106 2095 2096 2113 2098 2121 2100 2135 2099 2111 2120 2119 2101 2117 2109 2114 2123 2107 2118 2097 2116 2110 0
-8238 0
-8237 -8231 -8229 0
-8237 -8229 -8233 0
-8231 -8233 -8235 0
-8237 -8231 -8233 0
-8237 -8233 -8235 0
8229 8231 8233 8237 8230 8234 8236 8232 8238 0
-352 8239 0
-353 8239 0
-371 8239 0
-373 8239 0
-374 8239 0
-391 8239 0
-8239 389 360 350 352 371 374 349 387 365 370 364 390 395 367 353 368 363 373 361 391 392 394 362 386 0
-8240 0
-598 8241 0
-599 8241 0
-615 8241 0
-619 8241 0
-627 8241 0
-628 8241 0
-629 8241 0
-630 8241 0
-637 8241 0
-638 8241 0
-639 8241 0
-640 8241 0
-650 8241 0
-651 8241 0
-654 8241 0
-669 8241 0
-673 8241 0
-695 8241 0
-697 8241 0
-701 8241 0
-705 8241 0
-713 8241 0
-714 8241 0
-730 8241 0
-739 8241 0
-744 8241 0
-8241 729 630 726 725 669 673 651 694 681 701 705 607 700 736 670 687 735 638 658 717 639 674 659 728 608 616 628 601 682 598 620 627 650 599 696 693 692 657 637 654 615 619 704 664 640 714 656 718 602 695 727 629 713 730 744 697 739 740 743 655 0
-8242 0
8243 -1844 0
8243 -1845 0
8243 -1875 0
8243 -1876 0
8243 -1881 0
-8243 1793 1881 1844 1920 1845 1875 1792 1848 1890 1938 1851 1850 1810 1887 1895 1852 1933 1853 1888 1922 1876 1832 1824 1912 1813 1822 1858 1863 1864 1929 1867 1809 1889 1930 1849 1814 1802 1823 1868 1891 1796 1886 1795 1899 1898 1894 1831 1908 1821 1907 1833 1834 1801 1911 1919 1921 1923 1924 1934 1937 0
-8244 0
-1942 8245 0
-1943 8245 0
-1945 8245 0
-1946 8245 0
-1951 8245 0
-1952 8245 0
-1959 8245 0
-1960 8245 0
-1963 8245 0
-1964 8245 0
-1971 8245 0
-1972 8245 0
-1973 8245 0
-1974 8245 0
-1981 8245 0
-1982 8245 0
-1983 8245 0
-1984 8245 0
-1994 8245 0
-1995 8245 0
-1998 8245 0
-1999 8245 0
-2000 8245 0
-2001 8245 0
-2002 8245 0
-2003 8245 0
-2008 8245 0
-2013 8245 0
-2014 8245 0
-2017 8245 0
-2018 8245 0
-2025 8245 0
-2026 8245 0
-2038 8245 0
-2039 8245 0
-2040 8245 0
-2041 8245 0
-2044 8245 0
-2045 8245 0
-2048 8245 0
-2049 8245 0
-2057 8245 0
-2058 8245 0
-2061 8245 0
-2062 8245 0
-2070 8245 0
-2071 8245 0
-2072 8245 0
-2079 8245 0
-2080 8245 0
-2083 8245 0
-2084 8245 0
-8245 1994 2038 2040 2069 2037 1973 2058 2083 2073 1946 2070 2000 1960 1945 1943 2087 1981 2061 2079 2062 2088 1982 2018 2084 2080 2074 2017 1998 1972 2013 2041 1964 2014 1942 2001 2071 2057 1951 1974 2044 2048 2026 2045 1984 2003 1999 1995 1963 2072 1983 2002 2039 2049 2036 2008 1971 2031 1959 1952 2025 0
-8246 0
-2089 8247 0
-2102 8247 0
-2103 8247 0
-2104 8247 0
-2105 8247 0
-2108 8247 0
-2124 8247 0
-2126 8247 0
-2131 8247 0
-2133 8247 0
-8247 2125 2102 2103 2131 2091 2130 2105 2124 2108 2126 2133 2127 2092 2104 2089 0
-8248 0
-8241 -8239 -8243 0
-8241 -8245 -8239 0
-8245 -8239 -8243 0
-8247 -8239 -8243 0
-8241 -8245 -8243 0
8239 8241 8245 8247 8244 8240 8246 8242 8248 0
-8249 0
-8250 0
-598 8251 0
-599 8251 0
-615 8251 0
-619 8251 0
-626 8251 0
-629 8251 0
-630 8251 0
-639 8251 0
-640 8251 0
-650 8251 0
-656 8251 0
-673 8251 0
-678 8251 0
-695 8251 0
-701 8251 0
-703 8251 0
-713 8251 0
-728 8251 0
-744 8251 0
-8251 620 673 681 702 640 674 664 599 651 630 626 619 728 744 623 682 598 700 647 625 642 624 641 701 659 724 692 684 717 703 618 639 687 657 615 631 650 690 691 734 693 694 616 648 695 658 678 656 713 718 723 632 727 629 733 714 743 617 683 677 0
-8252 0
-1844 8253 0
-1845 8253 0
-1881 8253 0
-8253 1793 1881 1845 1825 1810 1876 1878 1835 1877 1851 1811 1850 1937 1867 1852 1844 1922 1888 1853 1938 1889 1908 1841 1817 1813 1814 1824 1809 1858 1834 1868 1871 1872 1819 1820 1912 1818 1842 1884 1885 1812 1875 1826 1833 1921 1895 1896 1897 1907 1886 1823 1894 1911 1887 1836 1927 1792 1928 1918 1917 0
-8254 0
-1942 8255 0
-1943 8255 0
-1962 8255 0
-1963 8255 0
-1964 8255 0
-1967 8255 0
-1968 8255 0
-1969 8255 0
-1970 8255 0
-1973 8255 0
-1974 8255 0
-1975 8255 0
-1976 8255 0
-1983 8255 0
-1984 8255 0
-1985 8255 0
-1986 8255 0
-1991 8255 0
-1992 8255 0
-1994 8255 0
-1995 8255 0
-2000 8255 0
-2003 8255 0
-2008 8255 0
-2017 8255 0
-2018 8255 0
-2025 8255 0
-2026 8255 0
-2027 8255 0
-2028 8255 0
-2034 8255 0
-2035 8255 0
-2036 8255 0
-2037 8255 0
-2038 8255 0
-2039 8255 0
-2044 8255 0
-2045 8255 0
-2046 8255 0
-2047 8255 0
-2061 8255 0
-2062 8255 0
-2067 8255 0
-2068 8255 0
-2071 8255 0
-2072 8255 0
-2077 8255 0
-2078 8255 0
-2087 8255 0
-8255 2037 1942 1994 2038 2072 2039 1967 2078 2035 2034 2022 1970 2088 1964 2087 2026 1962 2002 2062 1943 2057 1960 1986 1959 1985 1975 2021 1983 1992 2018 2025 2003 2068 2071 2027 1984 2058 2008 2067 1968 1995 2000 1976 2028 2045 1969 1973 1974 1963 2017 2077 2047 2061 2031 2036 2001 2044 2046 1991 1961 0
-8256 0
-2089 8257 0
-2091 8257 0
-2095 8257 0
-2098 8257 0
-2099 8257 0
-2100 8257 0
-2101 8257 0
-2102 8257 0
-2103 8257 0
-2104 8257 0
-2105 8257 0
-2107 8257 0
-2109 8257 0
-2110 8257 0
-2111 8257 0
-2114 8257 0
-2116 8257 0
-2117 8257 0
-2118 8257 0
-2119 8257 0
-2120 8257 0
-2121 8257 0
-2123 8257 0
-2124 8257 0
-2126 8257 0
-2127 8257 0
-2131 8257 0
-2133 8257 0
-2134 8257 0
-2135 8257 0
-8257 2127 2108 2099 2091 2118 2131 2097 2095 2089 2101 2102 2092 2103 2105 2120 2122 2098 2117 2110 2111 2100 2114 2116 2107 2104 2119 2109 2121 2106 2123 2124 2125 2113 2126 2096 2133 2134 2135 2130 0
-8258 0
-8257 -8251 -8253 0
-8257 -8255 -8253 0
8253 8251 8255 8252 8250 8254 8249 8256 8258 0
8257 8253 8251 8252 8250 8254 8256 8249 8258 0
-8259 0
-8260 0
-600 8261 0
-637 8261 0
-638 8261 0
-654 8261 0
-669 8261 0
-675 8261 0
-697 8261 0
-705 8261 0
-707 8261 0
-725 8261 0
-736 8261 0
-739 8261 0
-8261 705 729 735 736 725 669 675 670 595 600 726 602 676 697 655 707 654 627 638 706 601 704 739 608 696 740 637 607 730 628 0
-8262 0
-1794 8263 0
-1802 8263 0
-1821 8263 0
-1822 8263 0
-1831 8263 0
-1832 8263 0
-1848 8263 0
-1863 8263 0
-1869 8263 0
-1870 8263 0
-1891 8263 0
-1899 8263 0
-1900 8263 0
-1901 8263 0
-1919 8263 0
-1924 8263 0
-1930 8263 0
-1933 8263 0
-8263 1870 1795 1801 1794 1900 1849 1924 1796 1831 1863 1890 1869 1923 1832 1901 1929 1864 1848 1821 1891 1802 1898 1934 1919 1789 1822 1933 1920 1899 1930 0
-8264 0
-1939 8265 0
-1944 8265 0
-1945 8265 0
-1946 8265 0
-1951 8265 0
-1952 8265 0
-1971 8265 0
-1972 8265 0
-1981 8265 0
-1982 8265 0
-1998 8265 0
-1999 8265 0
-2014 8265 0
-2020 8265 0
-2040 8265 0
-2041 8265 0
-2048 8265 0
-2049 8265 0
-2050 8265 0
-2051 8265 0
-2070 8265 0
-2073 8265 0
-2074 8265 0
-2079 8265 0
-2080 8265 0
-2083 8265 0
-8265 1999 1946 2051 2069 2073 2019 2020 2050 2084 1998 2083 2049 2070 1981 1944 2040 2041 1951 2074 1971 2080 1972 1945 1982 2014 1952 2013 2079 1939 2048 0
-8266 0
-2089 8267 0
-2090 8267 0
-2091 8267 0
-2092 8267 0
-2093 8267 0
-2094 8267 0
-2102 8267 0
-2103 8267 0
-2104 8267 0
-2105 8267 0
-2108 8267 0
-2112 8267 0
-2115 8267 0
-2124 8267 0
-2125 8267 0
-2126 8267 0
-2127 8267 0
-2128 8267 0
-2129 8267 0
-2130 8267 0
-2131 8267 0
-2132 8267 0
-2133 8267 0
-2136 8267 0
-8267 2130 2132 2115 2124 2112 2094 2131 2091 2102 2105 2126 2104 2108 2127 2125 2093 2103 2129 2092 2089 2128 2133 2136 2090 0
-8268 0
-8267 -8261 0
-8263 -8267 0
-8267 -8265 0
8263 8261 8265 8267 8260 8264 8259 8266 8262 8268 0
-8269 0
-8270 0
-597 8271 0
-671 8271 0
-672 8271 0
-708 8271 0
-710 8271 0
-711 8271 0
-8271 708 671 685 672 699 737 667 660 644 612 661 633 715 611 636 610 732 646 609 665 645 634 662 722 596 680 621 689 663 605 604 613 614 652 635 710 686 679 603 688 649 606 698 711 668 643 712 666 622 716 719 720 721 709 653 731 597 738 741 742 0
-8272 0
-1843 8273 0
-1879 8273 0
-1880 8273 0
-8273 1879 1862 1798 1882 1903 1936 1883 1846 1873 1857 1847 1880 1915 1916 1791 1840 1925 1839 1838 1815 1830 1828 1816 1829 1926 1855 1856 1827 1859 1860 1861 1932 1865 1866 1806 1874 1805 1804 1935 1799 1892 1893 1837 1854 1803 1800 1906 1807 1808 1909 1914 1902 1797 1790 1904 1843 1905 1910 1913 1931 0
-8274 0
-2023 8275 0
-8275 2029 2076 2042 2043 2056 1958 2060 1989 2063 1950 2006 1966 1996 1940 1955 1953 2009 2005 1980 1977 2032 2086 1979 2065 2066 2012 2030 2024 1956 2052 1941 1987 1993 1990 2054 1954 2007 2010 1948 2055 2059 1949 2033 1978 2064 1947 1997 2053 1965 2004 2015 1988 2082 2016 2075 2081 2011 1957 2023 2085 0
-8276 0
-2090 8277 0
-2094 8277 0
-2095 8277 0
-2096 8277 0
-2097 8277 0
-2098 8277 0
-2100 8277 0
-2101 8277 0
-2106 8277 0
-2111 8277 0
-2112 8277 0
-2113 8277 0
-2115 8277 0
-2118 8277 0
-2119 8277 0
-2120 8277 0
-2121 8277 0
-2122 8277 0
-2123 8277 0
-2128 8277 0
-2129 8277 0
-2132 8277 0
-8277 2094 2100 2132 2120 2093 2117 2113 2115 2098 2090 2112 2096 2119 2134 2097 2095 2101 2135 2116 2109 2129 2110 2122 2121 2118 2136 2123 2128 2114 2111 2099 2106 2107 0
-8278 0
-8277 -8271 -8273 0
8273 8271 8275 8272 8270 8274 8269 8276 8278 0
8273 8277 8271 8272 8270 8274 8276 8269 8278 0
8277 8275 8271 8272 8274 8270 8276 8269 8278 0
8273 8277 8275 8269 8274 8270 8276 8272 8278 0
-352 8279 0
-356 8279 0
-357 8279 0
-365 8279 0
-366 8279 0
-367 8279 0
-368 8279 0
-369 8279 0
-370 8279 0
-371 8279 0
8279 -374 0
-376 8279 0
-377 8279 0
-379 8279 0
-380 8279 0
8279 -388 0
-390 8279 0
-391 8279 0
-392 8279 0
-394 8279 0
-8280 0
-596 8281 0
-597 8281 0
-633 8281 0
-666 8281 0
-667 8281 0
-669 8281 0
-685 8281 0
-698 8281 0
-704 8281 0
-705 8281 0
-708 8281 0
-709 8281 0
-721 8281 0
-8281 708 729 736 737 725 667 602 653 597 666 634 609 633 627 697 738 628 669 689 610 655 644 606 605 601 709 638 722 596 662 726 608 712 686 680 679 688 652 698 696 654 668 607 740 685 637 670 716 663 721 665 649 704 715 730 735 705 643 699 739 0
-8282 0
-1795 8283 0
-1796 8283 0
-1799 8283 0
-1800 8283 0
-1837 8283 0
-1838 8283 0
-1843 8283 0
-1856 8283 0
-1857 8283 0
-1873 8283 0
-1879 8283 0
-1880 8283 0
-1890 8283 0
-1891 8283 0
-1892 8283 0
-1893 8283 0
-1909 8283 0
-1923 8283 0
-1924 8283 0
-8283 1934 1879 1799 1882 1883 1862 1903 1846 1873 1791 1847 1880 1790 1920 1831 1795 1837 1796 1933 1930 1848 1849 1856 1857 1859 1860 1861 1838 1863 1924 1931 1874 1828 1800 1827 1932 1898 1864 1892 1893 1821 1804 1803 1822 1890 1802 1832 1891 1899 1909 1843 1923 1801 1902 1906 1915 1929 1916 1919 1910 0
-8284 0
-1940 8285 0
-1941 8285 0
-1949 8285 0
-1950 8285 0
-1951 8285 0
-1953 8285 0
-1954 8285 0
-1977 8285 0
-1978 8285 0
-1987 8285 0
-1988 8285 0
-1993 8285 0
-1996 8285 0
-1997 8285 0
-1998 8285 0
-1999 8285 0
-2006 8285 0
-2007 8285 0
-2010 8285 0
-2011 8285 0
-2012 8285 0
-2029 8285 0
-2030 8285 0
-2052 8285 0
-2053 8285 0
-2059 8285 0
-2060 8285 0
-2065 8285 0
-8285 2073 2043 2040 2029 2060 1950 2069 2083 2066 1941 2059 2030 2084 1978 2032 2013 1940 2070 2053 2081 1998 1982 2007 2010 2011 2006 1981 2014 2042 1972 2033 2048 1951 1996 2009 1997 1993 2074 2052 1945 1977 2012 1954 2041 2024 1987 1953 2079 2056 2080 2049 2082 2065 1971 1988 1949 1999 1952 1946 2023 0
-8286 0
-8287 0
-8288 0
-8281 -8283 -8279 0
-8281 -8285 -8279 0
-8283 -8285 -8279 0
-8281 -8283 -8285 0
8283 8281 8285 8280 8284 8282 8286 8287 8288 0
8289 -352 0
8289 -354 0
8289 -371 0
8289 -372 0
8289 -374 0
-375 8289 0
8289 -378 0
8289 -381 0
8289 -391 0
8289 -393 0
-598 8291 0
-613 8291 0
-614 8291 0
-622 8291 0
-650 8291 0
-651 8291 0
-656 8291 0
8291 -671 0
-673 8291 0
-681 8291 0
8291 -692 0
-695 8291 0
-700 8291 0
8291 -701 0
-710 8291 0
8291 -711 0
-713 8291 0
-714 8291 0
-1814 8293 0
-1844 8293 0
8293 -1845 0
-1853 8293 0
-1855 8293 0
8293 -1881 0
-1942 8295 0
-1947 8295 0
-1955 8295 0
-1956 8295 0
-1957 8295 0
-1958 8295 0
-1959 8295 0
-1960 8295 0
-1963 8295 0
-1964 8295 0
-1965 8295 0
-1966 8295 0
-1973 8295 0
-1974 8295 0
-1979 8295 0
-1980 8295 0
-1983 8295 0
-1984 8295 0
-1994 8295 0
-1995 8295 0
-2002 8295 0
-2003 8295 0
-2004 8295 0
-2005 8295 0
-2015 8295 0
-2016 8295 0
-2025 8295 0
-2031 8295 0
-2037 8295 0
8295 -2038 0
-2044 8295 0
-2054 8295 0
-2062 8295 0
-2063 8295 0
-2064 8295 0
-2071 8295 0
-2085 8295 0
-2086 8295 0
-2087 8295 0
-2088 8295 0
-8295 1995 1958 2038 2037 1994 2054 1948 1983 1955 2086 2075 1943 2085 1989 2000 2044 2087 1957 1960 1990 2039 1965 2063 2076 2088 2015 2062 2002 2018 2055 2072 1984 1956 2036 2058 1959 2061 2026 1979 2064 2008 2016 1973 1964 2017 2005 2004 1980 2001 2071 2003 1966 2045 1974 2057 2031 2025 1963 1942 1947 0
-8291 -8289 -8293 0
-8291 -8295 -8289 0
-8295 -8289 -8293 0
8299 -351 0
-354 8299 0
-355 8299 0
8299 -356 0
-357 8299 0
8299 -366 0
-369 8299 0
8299 -372 0
8299 -375 0
-376 8299 0
-377 8299 0
-378 8299 0
8299 -379 0
8299 -380 0
8299 -381 0
8299 -393 0
8299 -396 0
-595 8301 0
-600 8301 0
-617 8301 0
-618 8301 0
-624 8301 0
-625 8301 0
-631 8301 0
-632 8301 0
-641 8301 0
-642 8301 0
-647 8301 0
-648 8301 0
-675 8301 0
-676 8301 0
-677 8301 0
-678 8301 0
-683 8301 0
-684 8301 0
-690 8301 0
-691 8301 0
-702 8301 0
-703 8301 0
-706 8301 0
-707 8301 0
-723 8301 0
-724 8301 0
-733 8301 0
-734 8301 0
-8301 707 647 642 677 702 631 626 691 600 625 624 703 595 734 623 648 675 690 678 617 706 641 676 618 632 724 683 733 684 723 0
-1811 8303 0
-1812 8303 0
-1817 8303 0
-1818 8303 0
-1836 8303 0
-1878 8303 0
-1939 8305 0
-1944 8305 0
-1961 8305 0
-1962 8305 0
-1967 8305 0
-1968 8305 0
-1969 8305 0
-1970 8305 0
-1975 8305 0
-1976 8305 0
-1985 8305 0
-1986 8305 0
-1991 8305 0
-1992 8305 0
-2019 8305 0
-2027 8305 0
-2034 8305 0
-2046 8305 0
-2047 8305 0
-2051 8305 0
-2068 8305 0
-2078 8305 0
-8305 1967 2022 2034 2051 2020 2078 2047 1962 1991 1969 1970 2068 1992 2021 2046 1986 1939 1968 2028 2035 1944 2019 2027 2050 1985 2067 1975 1976 2077 1961 0
-8301 -8299 0
-8303 -8299 0
-8305 -8299 0
-200 8309 0
-205 8309 0
-210 8309 0
-212 8309 0
-214 8309 0
-219 8309 0
-221 8309 0
-223 8309 0
-228 8309 0
-238 8309 0
-247 8309 0
-262 8309 0
-267 8309 0
-273 8309 0
-278 8309 0
-304 8309 0
-309 8309 0
-320 8309 0
-322 8309 0
-332 8309 0
-334 8309 0
-343 8309 0
-348 8309 0
-8309 247 203 223 313 322 262 228 348 212 221 334 205 214 278 210 320 238 200 219 236 273 343 272 267 304 282 307 252 309 332 0
-8310 0
-350 8311 0
-352 8311 0
-357 8311 0
-365 8311 0
-369 8311 0
-374 8311 0
-380 8311 0
-390 8311 0
-8311 380 352 390 365 395 350 369 374 357 0
-8312 0
-596 8313 0
-601 8313 0
-606 8313 0
-610 8313 0
-615 8313 0
-617 8313 0
-619 8313 0
-624 8313 0
-632 8313 0
-634 8313 0
-643 8313 0
-648 8313 0
-658 8313 0
-663 8313 0
-668 8313 0
-669 8313 0
-674 8313 0
-678 8313 0
-700 8313 0
-703 8313 0
-705 8313 0
-716 8313 0
-718 8313 0
-728 8313 0
-730 8313 0
-739 8313 0
-744 8313 0
-8313 705 669 709 718 668 700 678 596 716 599 703 648 730 615 624 634 744 643 739 632 601 619 728 608 674 610 658 663 606 617 0
-8314 0
-1345 8315 0
-1350 8315 0
-1352 8315 0
-1362 8315 0
-1367 8315 0
-1376 8315 0
-1380 8315 0
-1385 8315 0
-1391 8315 0
-8315 1391 1352 1367 1350 1380 1345 1362 1376 1385 0
-8316 0
-1795 8317 0
-1800 8317 0
-1802 8317 0
-1809 8317 0
-1813 8317 0
-1828 8317 0
-1837 8317 0
-1842 8317 0
-1852 8317 0
-1863 8317 0
-1899 8317 0
-1910 8317 0
-1912 8317 0
-1922 8317 0
-1924 8317 0
-8317 1868 1790 1793 1828 1933 1938 1826 1872 1894 1912 1811 1903 1922 1809 1924 1857 1910 1863 1862 1899 1795 1800 1842 1852 1802 1813 1804 1837 1897 1818 0
-8318 0
-8309 -8311 0
-8313 -8309 0
-8309 -8315 0
-8317 -8309 0
-8313 -8311 0
-8315 -8311 0
-8317 -8311 0
-8313 -8315 0
-8313 -8317 0
-8317 -8315 0
8309 8313 8311 8315 8317 8314 8312 8316 8310 8318 0
-296 8319 0
-297 8319 0
-305 8319 0
-341 8319 0
-8319 201 218 206 305 220 216 254 233 211 339 263 199 308 244 239 240 226 270 323 249 231 235 224 258 260 292 265 268 242 251 276 277 287 284 285 250 289 291 286 294 296 297 299 301 208 248 311 314 317 321 279 325 327 329 330 338 237 340 341 274 0
-8320 0
-354 8321 0
-368 8321 0
-371 8321 0
-375 8321 0
-378 8321 0
-8321 383 367 353 371 373 378 391 354 360 375 382 368 386 387 361 0
-8322 0
-597 8323 0
-673 8323 0
-681 8323 0
-695 8323 0
-701 8323 0
-8324 0
-1381 8325 0
-1386 8325 0
-1387 8325 0
-1389 8325 0
-8325 1373 1351 1347 1368 1384 1381 1369 1370 1378 1346 1389 1382 1365 1357 1361 1379 1360 1386 1387 1353 1366 1356 1374 1364 0
-8326 0
-1789 8327 0
-1791 8327 0
-1829 8327 0
-1830 8327 0
-1839 8327 0
-1840 8327 0
-1844 8327 0
-1848 8327 0
-1850 8327 0
-1858 8327 0
-1875 8327 0
-1876 8327 0
-1879 8327 0
-1881 8327 0
-1884 8327 0
-1886 8327 0
-1887 8327 0
-1917 8327 0
-1930 8327 0
-8327 1881 1867 1879 1825 1882 1907 1891 1876 1875 1853 1796 1877 1913 1866 1855 1791 1904 1931 1832 1929 1848 1841 1874 1930 1839 1806 1816 1858 1860 1834 1864 1844 1838 1869 1823 1840 1821 1829 1830 1850 1889 1884 1810 1798 1887 1895 1898 1808 1919 1901 1827 1789 1911 1814 1886 1801 1920 1928 1915 1917 0
-8328 0
-8319 -8321 -8327 0
-8319 -8327 -8323 0
-8321 -8323 -8327 0
-8321 -8325 -8327 0
-8325 -8323 -8327 0
8321 8319 8325 8327 8324 8320 8326 8322 8328 0
8323 8321 8325 8327 8324 8322 8326 8320 8328 0
-202 8329 0
-204 8329 0
-207 8329 0
-209 8329 0
-213 8329 0
-217 8329 0
-222 8329 0
-225 8329 0
-227 8329 0
-229 8329 0
-230 8329 0
-232 8329 0
-234 8329 0
-241 8329 0
-243 8329 0
-245 8329 0
-246 8329 0
-253 8329 0
-255 8329 0
-256 8329 0
-257 8329 0
-259 8329 0
-261 8329 0
-264 8329 0
-266 8329 0
-269 8329 0
-271 8329 0
-275 8329 0
-280 8329 0
-281 8329 0
-283 8329 0
-288 8329 0
-290 8329 0
-293 8329 0
-295 8329 0
-298 8329 0
-300 8329 0
-302 8329 0
-303 8329 0
-306 8329 0
-310 8329 0
-312 8329 0
-315 8329 0
-316 8329 0
-318 8329 0
-319 8329 0
-324 8329 0
-326 8329 0
-328 8329 0
-331 8329 0
-333 8329 0
-335 8329 0
-336 8329 0
-337 8329 0
-342 8329 0
-344 8329 0
-345 8329 0
-346 8329 0
-347 8329 0
-8329 256 269 347 310 271 257 259 253 229 346 234 245 217 202 290 281 232 293 335 300 302 275 225 280 213 261 316 344 209 342 283 241 207 204 295 298 222 227 303 333 243 306 315 230 318 319 324 264 328 331 288 215 246 337 336 326 345 312 255 266 0
-8330 0
-349 8331 0
-351 8331 0
-355 8331 0
-356 8331 0
-358 8331 0
-359 8331 0
-362 8331 0
-363 8331 0
-364 8331 0
-366 8331 0
-370 8331 0
-372 8331 0
-376 8331 0
-377 8331 0
-379 8331 0
-381 8331 0
-384 8331 0
-385 8331 0
-388 8331 0
-389 8331 0
-392 8331 0
-393 8331 0
-394 8331 0
-396 8331 0
-8331 393 359 349 355 388 356 364 385 363 366 370 379 376 377 351 381 362 384 358 389 392 394 396 372 0
-8332 0
-598 8333 0
-600 8333 0
-605 8333 0
-613 8333 0
-623 8333 0
-625 8333 0
-626 8333 0
-630 8333 0
-637 8333 0
-639 8333 0
-641 8333 0
-642 8333 0
-649 8333 0
-651 8333 0
-653 8333 0
-655 8333 0
-667 8333 0
-676 8333 0
-679 8333 0
-684 8333 0
-686 8333 0
-689 8333 0
-691 8333 0
-694 8333 0
-696 8333 0
-698 8333 0
-699 8333 0
-706 8333 0
-708 8333 0
-711 8333 0
-712 8333 0
-714 8333 0
-722 8333 0
-729 8333 0
-731 8333 0
-732 8333 0
-738 8333 0
-740 8333 0
-741 8333 0
-742 8333 0
-8333 600 729 722 724 738 742 667 626 676 671 653 712 679 603 618 727 686 598 677 642 743 628 689 630 621 665 605 641 637 657 691 651 660 698 706 611 684 699 639 702 613 625 623 652 649 711 714 715 720 662 655 732 696 733 694 731 741 740 708 609 0
-8334 0
-1348 8335 0
-1349 8335 0
-1363 8335 0
-1375 8335 0
-1377 8335 0
-1383 8335 0
-1388 8335 0
-1390 8335 0
-1392 8335 0
-8335 1375 1348 1363 1371 1392 1354 1377 1383 1358 1388 1390 1355 1359 1349 1372 0
-8336 0
-1792 8337 0
-1799 8337 0
-1803 8337 0
-1805 8337 0
-1820 8337 0
-1824 8337 0
-1831 8337 0
-1833 8337 0
-1843 8337 0
-1845 8337 0
-1846 8337 0
-1849 8337 0
-1851 8337 0
-1859 8337 0
-1861 8337 0
-1865 8337 0
-1870 8337 0
-1880 8337 0
-1885 8337 0
-1888 8337 0
-1893 8337 0
-1900 8337 0
-1902 8337 0
-1905 8337 0
-1908 8337 0
-1916 8337 0
-1918 8337 0
-1921 8337 0
-1927 8337 0
-1932 8337 0
-8337 1843 1799 1845 1819 1914 1888 1873 1885 1824 1870 1846 1807 1932 1935 1871 1835 1936 1836 1856 1833 1847 1849 1815 1831 1851 1854 1861 1865 1937 1880 1926 1859 1925 1792 1794 1908 1890 1892 1893 1805 1822 1812 1820 1934 1803 1896 1878 1817 1918 1906 1923 1905 1883 1909 1900 1916 1921 1902 1927 1797 0
-8338 0
-8329 -8335 -8331 0
-8331 -8337 -8329 0
-8329 -8335 -8333 0
-8333 -8337 -8329 0
-8329 -8335 -8337 0
-8333 -8331 -8337 0
-8335 -8331 -8337 0
-8335 -8333 -8337 0
8333 8329 8335 8337 8334 8332 8336 8330 8338 0
8331 8333 8335 8337 8334 8332 8336 8330 8338 0
-202 8339 0
-220 8339 0
-233 8339 0
-241 8339 0
-244 8339 0
-253 8339 0
-259 8339 0
-269 8339 0
-271 8339 0
-283 8339 0
-286 8339 0
-290 8339 0
-297 8339 0
-312 8339 0
-314 8339 0
-330 8339 0
-339 8339 0
-341 8339 0
-8339 220 324 341 230 271 346 286 302 325 222 253 300 217 280 310 339 330 202 255 244 231 232 292 293 335 290 266 248 239 226 308 237 283 274 297 246 257 316 218 295 312 227 314 224 318 225 241 242 250 319 276 344 259 288 233 269 204 333 284 264 0
-8340 0
-8341 0
-8342 0
-638 8343 0
-640 8343 0
-644 8343 0
-670 8343 0
-672 8343 0
-679 8343 0
-680 8343 0
-682 8343 0
-684 8343 0
-688 8343 0
-689 8343 0
-693 8343 0
-696 8343 0
-710 8343 0
-712 8343 0
-715 8343 0
-721 8343 0
-735 8343 0
-737 8343 0
-8343 712 729 726 672 720 686 737 667 689 637 642 735 696 629 688 623 618 662 627 613 598 640 633 682 622 710 644 679 628 614 698 653 660 620 706 649 638 731 626 655 665 616 670 646 742 693 714 635 680 684 676 708 600 715 704 621 721 691 740 651 0
-8344 0
-1346 8345 0
-1347 8345 0
-1351 8345 0
-1353 8345 0
-1360 8345 0
-1361 8345 0
-1364 8345 0
-1365 8345 0
-1366 8345 0
-1368 8345 0
-1378 8345 0
-1379 8345 0
-1381 8345 0
-1382 8345 0
-1383 8345 0
-1384 8345 0
-1387 8345 0
-1388 8345 0
-1389 8345 0
-1390 8345 0
-8345 1357 1351 1383 1386 1379 1363 1368 1384 1378 1392 1347 1371 1370 1375 1353 1365 1348 1346 1387 1377 1361 1366 1358 1388 1364 1360 1389 1374 1349 1390 1354 1372 1359 1355 1382 1381 1369 1373 1356 0
-8346 0
-1808 8347 0
-1816 8347 0
-1821 8347 0
-1832 8347 0
-1843 8347 0
-1845 8347 0
-1874 8347 0
-1880 8347 0
-1882 8347 0
-8347 1882 1843 1808 1845 1832 1792 1880 1914 1873 1878 1874 1840 1861 1870 1829 1909 1929 1838 1827 1836 1923 1831 1822 1847 1849 1854 1856 1859 1814 1864 1866 1931 1823 1815 1934 1817 1820 1821 1900 1816 1902 1890 1892 1936 1834 1812 1898 1908 1810 1887 1807 1883 1906 1876 1794 1925 1904 1915 1920 1885 0
-8348 0
-8343 -8339 -8345 0
-8343 -8347 -8339 0
-8347 -8339 -8345 0
-8343 -8347 -8345 0
8339 8343 8347 8342 8340 8344 8346 8341 8348 0
8345 8339 8347 8342 8344 8340 8346 8341 8348 0
8345 8343 8347 8340 8344 8341 8346 8342 8348 0
-200 8349 0
-203 8349 0
-207 8349 0
-209 8349 0
-213 8349 0
-215 8349 0
-234 8349 0
-243 8349 0
-256 8349 0
-261 8349 0
-272 8349 0
-275 8349 0
-278 8349 0
-298 8349 0
-303 8349 0
-304 8349 0
-313 8349 0
-315 8349 0
-326 8349 0
-331 8349 0
-336 8349 0
-342 8349 0
-345 8349 0
-347 8349 0
-8349 213 272 298 303 200 342 347 256 328 229 234 278 315 304 331 207 245 337 215 243 281 275 306 326 336 203 261 345 209 313 0
-8350 0
-8351 0
-8352 0
-596 8353 0
-599 8353 0
-603 8353 0
-605 8353 0
-609 8353 0
-611 8353 0
-625 8353 0
-630 8353 0
-639 8353 0
-641 8353 0
-652 8353 0
-657 8353 0
-668 8353 0
-671 8353 0
-674 8353 0
-677 8353 0
-694 8353 0
-699 8353 0
-700 8353 0
-702 8353 0
-709 8353 0
-711 8353 0
-722 8353 0
-724 8353 0
-727 8353 0
-732 8353 0
-733 8353 0
-738 8353 0
-741 8353 0
-743 8353 0
-8353 711 674 677 722 671 732 743 641 709 611 657 699 724 652 738 694 668 702 609 603 605 639 727 599 733 700 596 741 625 630 0
-8354 0
-1348 8355 0
-1349 8355 0
-1350 8355 0
-1363 8355 0
-1367 8355 0
-1375 8355 0
-1376 8355 0
-1377 8355 0
-1380 8355 0
-1383 8355 0
-1385 8355 0
-1388 8355 0
-1390 8355 0
-1391 8355 0
-1392 8355 0
-8355 1367 1350 1383 1359 1345 1376 1385 1380 1371 1358 1391 1388 1363 1375 1390 1362 1392 1349 1352 1377 1348 1355 1354 1372 0
-8356 0
-1790 8357 0
-1793 8357 0
-1797 8357 0
-1799 8357 0
-1819 8357 0
-1824 8357 0
-1833 8357 0
-1835 8357 0
-1851 8357 0
-1862 8357 0
-1865 8357 0
-1868 8357 0
-1871 8357 0
-1888 8357 0
-1893 8357 0
-1894 8357 0
-1896 8357 0
-1903 8357 0
-1918 8357 0
-1921 8357 0
-1926 8357 0
-1927 8357 0
-1935 8357 0
-1937 8357 0
-8357 1868 1790 1833 1797 1935 1937 1871 1921 1793 1905 1851 1799 1926 1862 1932 1819 1805 1894 1893 1896 1888 1916 1903 1865 1846 1803 1927 1824 1835 1918 0
-8358 0
-8349 -8353 0
-8349 -8355 0
-8355 -8353 0
-8357 -8353 0
-8357 -8355 0
8349 8353 8355 8357 8350 8354 8351 8356 8352 8358 0
-210 8359 0
-212 8359 0
-214 8359 0
-216 8359 0
-219 8359 0
-223 8359 0
-265 8359 0
-282 8359 0
-294 8359 0
-296 8359 0
-299 8359 0
-301 8359 0
-305 8359 0
-338 8359 0
-348 8359 0
-8359 201 287 262 277 282 322 270 329 216 236 334 221 214 228 205 254 199 223 247 212 240 238 263 258 260 348 305 265 273 249 211 235 268 307 343 285 279 208 294 296 299 301 251 332 267 311 206 291 289 320 321 323 317 327 210 252 338 340 309 219 0
-8360 0
-8361 0
-8362 0
8363 -597 0
-606 8363 0
-669 8363 0
8363 -673 0
-675 8363 0
-681 8363 0
8363 -687 0
-692 8363 0
-701 8363 0
-703 8363 0
-705 8363 0
-728 8363 0
-744 8363 0
-8364 0
-1345 8365 0
-1346 8365 0
-1347 8365 0
-1350 8365 0
-1351 8365 0
-1352 8365 0
-1353 8365 0
-1360 8365 0
-1361 8365 0
-1362 8365 0
-1364 8365 0
-1365 8365 0
-1366 8365 0
-1367 8365 0
-1368 8365 0
-1378 8365 0
-1379 8365 0
-1380 8365 0
-1381 8365 0
-1382 8365 0
-1384 8365 0
-1385 8365 0
-1386 8365 0
-1387 8365 0
-1389 8365 0
-8365 1364 1350 1370 1368 1345 1353 1384 1381 1391 1369 1380 1385 1386 1352 1346 1347 1367 1351 1356 1379 1365 1378 1362 1360 1374 1366 1382 1387 1357 1389 1361 1376 1373 0
-8366 0
-1789 8367 0
-1791 8367 0
-1844 8367 0
-1848 8367 0
-1850 8367 0
-1879 8367 0
-1881 8367 0
-1884 8367 0
-1886 8367 0
-1917 8367 0
-1919 8367 0
-8367 1933 1879 1899 1884 1881 1825 1867 1839 1795 1791 1938 1848 1907 1913 1917 1853 1809 1837 1841 1796 1875 1806 1930 1855 1877 1919 1800 1818 1857 1858 1860 1863 1844 1869 1872 1842 1826 1828 1830 1928 1850 1813 1891 1895 1897 1852 1798 1801 1802 1804 1789 1911 1889 1886 1811 1912 1922 1910 1924 1901 0
-8368 0
-8359 -8363 -8367 0
-8359 -8367 -8365 0
-8363 -8367 -8365 0
8359 8365 8367 8362 8364 8360 8366 8361 8368 0
-199 8369 0
-201 8369 0
-206 8369 0
-208 8369 0
-211 8369 0
-215 8369 0
-216 8369 0
-234 8369 0
-235 8369 0
-240 8369 0
-243 8369 0
-249 8369 0
-251 8369 0
-254 8369 0
-256 8369 0
-258 8369 0
-260 8369 0
-263 8369 0
-265 8369 0
-268 8369 0
-270 8369 0
-277 8369 0
-279 8369 0
-285 8369 0
-287 8369 0
-289 8369 0
-291 8369 0
-294 8369 0
-296 8369 0
-299 8369 0
-301 8369 0
-305 8369 0
-311 8369 0
-317 8369 0
-321 8369 0
-323 8369 0
-326 8369 0
-327 8369 0
-329 8369 0
-338 8369 0
-340 8369 0
-342 8369 0
-8369 201 254 213 199 216 303 315 298 261 277 263 207 229 258 305 245 281 249 268 256 209 260 347 234 265 287 211 208 240 279 270 285 289 243 294 291 235 299 301 275 251 306 311 215 206 317 321 323 326 327 328 329 331 336 337 338 340 342 345 296 0
-8370 0
-349 8371 0
-351 8371 0
-355 8371 0
-356 8371 0
-364 8371 0
-366 8371 0
-370 8371 0
-372 8371 0
-376 8371 0
-377 8371 0
-379 8371 0
-381 8371 0
-388 8371 0
-389 8371 0
-392 8371 0
-393 8371 0
-396 8371 0
-8371 388 370 359 356 349 354 355 353 358 360 361 363 364 366 367 368 362 379 372 373 375 376 377 378 351 381 382 383 384 385 386 387 393 389 391 392 394 396 371 0
-8372 0
-597 8373 0
-602 8373 0
-605 8373 0
-639 8373 0
-673 8373 0
-681 8373 0
-685 8373 0
-687 8373 0
-694 8373 0
-695 8373 0
-697 8373 0
-699 8373 0
-725 8373 0
-736 8373 0
-8373 685 711 736 609 695 657 611 636 607 597 687 664 671 727 605 738 690 631 702 645 707 719 717 659 652 666 725 734 602 612 650 743 661 724 675 733 694 604 683 699 641 701 647 692 656 713 630 595 603 681 654 625 673 732 697 639 722 741 723 677 0
-8374 0
-8375 0
-8376 0
-1819 8377 0
-1825 8377 0
-1833 8377 0
-1844 8377 0
-1879 8377 0
-1881 8377 0
-1888 8377 0
-1930 8377 0
-8377 1937 1881 1879 1884 1893 1921 1825 1877 1888 1791 1799 1855 1860 1930 1846 1932 1889 1805 1927 1851 1917 1853 1848 1824 1875 1858 1905 1865 1833 1916 1869 1871 1850 1867 1819 1806 1935 1830 1841 1891 1918 1801 1896 1797 1911 1839 1835 1798 1895 1913 1928 1886 1796 1803 1901 1844 1789 1907 1926 1919 0
-8378 0
-8373 -8371 -8369 0
-8371 -8369 -8377 0
-8373 -8369 -8377 0
-8373 -8371 -8377 0
8369 8371 8373 8372 8370 8374 8375 8376 8378 0
8377 8369 8373 8370 8374 8375 8376 8372 8378 0
-202 8379 0
-204 8379 0
-212 8379 0
-214 8379 0
-217 8379 0
-219 8379 0
-221 8379 0
-223 8379 0
-228 8379 0
-236 8379 0
-238 8379 0
-241 8379 0
-247 8379 0
-253 8379 0
-259 8379 0
-262 8379 0
-267 8379 0
-271 8379 0
-273 8379 0
-283 8379 0
-293 8379 0
-300 8379 0
-309 8379 0
-312 8379 0
-320 8379 0
-322 8379 0
-332 8379 0
-334 8379 0
-343 8379 0
-348 8379 0
-8379 221 307 271 232 262 246 204 214 346 228 212 230 288 253 225 302 334 290 293 222 283 266 210 255 316 257 236 267 241 264 332 310 348 217 223 202 247 295 300 259 205 312 269 227 219 322 319 320 273 318 282 252 309 324 335 280 343 333 238 344 0
-8380 0
-350 8381 0
-352 8381 0
-355 8381 0
-357 8381 0
-365 8381 0
-366 8381 0
-369 8381 0
-370 8381 0
-372 8381 0
-374 8381 0
-376 8381 0
-377 8381 0
-379 8381 0
-380 8381 0
-381 8381 0
-388 8381 0
-390 8381 0
-392 8381 0
-393 8381 0
-394 8381 0
-395 8381 0
-8381 393 363 364 388 355 356 357 358 351 370 349 352 365 366 369 359 379 374 376 377 350 380 381 362 385 392 389 390 384 394 395 396 372 0
-8382 0
-598 8383 0
-600 8383 0
-608 8383 0
-613 8383 0
-615 8383 0
-619 8383 0
-626 8383 0
-632 8383 0
-634 8383 0
-642 8383 0
-643 8383 0
-649 8383 0
-651 8383 0
-655 8383 0
-665 8383 0
-667 8383 0
-669 8383 0
-676 8383 0
-678 8383 0
-679 8383 0
-686 8383 0
-689 8383 0
-691 8383 0
-703 8383 0
-705 8383 0
-708 8383 0
-712 8383 0
-714 8383 0
-730 8383 0
-739 8383 0
-8383 686 626 718 729 667 689 703 678 669 698 744 715 601 615 708 613 679 676 628 632 623 663 610 731 684 696 665 658 600 662 619 643 651 660 712 598 617 720 728 691 655 705 634 642 648 637 608 621 653 714 716 706 606 624 730 649 618 739 740 742 0
-8384 0
-8385 0
-8386 0
-1843 8387 0
-1845 8387 0
-1880 8387 0
-8387 1938 1843 1845 1795 1807 1914 1883 1885 1811 1792 1880 1925 1842 1836 1831 1934 1872 1822 1837 1794 1815 1912 1933 1847 1849 1852 1854 1856 1804 1859 1861 1863 1826 1870 1873 1817 1800 1857 1902 1900 1892 1828 1802 1820 1818 1906 1908 1812 1813 1809 1878 1890 1923 1909 1922 1897 1899 1924 1910 1936 0
-8388 0
-8387 -8381 -8379 0
-8383 -8387 -8379 0
-8383 -8387 -8381 0
8379 8381 8387 8382 8384 8385 8386 8380 8388 0
8383 8379 8387 8380 8384 8385 8386 8382 8388 0
8383 8381 8387 8380 8384 8385 8386 8382 8388 0
-220 8389 0
-224 8389 0
-231 8389 0
-233 8389 0
-237 8389 0
-242 8389 0
-244 8389 0
-248 8389 0
-274 8389 0
-284 8389 0
-286 8389 0
-292 8389 0
-297 8389 0
-308 8389 0
-325 8389 0
-330 8389 0
-339 8389 0
-341 8389 0
-350 8391 0
-352 8391 0
-353 8391 0
-354 8391 0
-357 8391 0
-360 8391 0
-361 8391 0
-365 8391 0
-367 8391 0
-368 8391 0
-369 8391 0
-371 8391 0
-373 8391 0
8391 -374 0
-375 8391 0
-378 8391 0
-380 8391 0
-382 8391 0
-383 8391 0
-386 8391 0
-387 8391 0
-390 8391 0
-391 8391 0
-395 8391 0
-8391 383 371 390 374 353 354 378 350 380 369 365 395 391 352 367 360 357 373 368 387 386 361 375 382 0
-596 8393 0
-614 8393 0
-616 8393 0
-620 8393 0
-622 8393 0
-627 8393 0
-629 8393 0
-633 8393 0
-635 8393 0
-638 8393 0
-640 8393 0
-644 8393 0
-646 8393 0
-668 8393 0
-670 8393 0
-672 8393 0
-674 8393 0
-680 8393 0
-682 8393 0
-688 8393 0
-693 8393 0
-700 8393 0
-704 8393 0
-709 8393 0
-710 8393 0
-721 8393 0
-726 8393 0
-735 8393 0
-737 8393 0
-8393 704 670 672 674 726 700 644 710 633 646 680 640 596 629 627 599 737 735 638 682 616 693 688 635 668 620 622 721 709 614 0
-1790 8397 0
-1814 8397 0
-1838 8397 0
-1840 8397 0
-1862 8397 0
-1864 8397 0
-1866 8397 0
-1868 8397 0
-1874 8397 0
-1876 8397 0
-1915 8397 0
-1920 8397 0
-1929 8397 0
-1931 8397 0
-8397 1827 1808 1862 1868 1793 1790 1874 1832 1821 1816 1887 1834 1814 1823 1838 1864 1866 1931 1810 1840 1882 1829 1894 1898 1903 1904 1915 1920 1929 1876 0
-8389 -8391 0
-8389 -8393 0
-8397 -8389 0
-8393 -8391 0
-8397 -8391 0
-548 8399 0
-551 8399 0
-562 8399 0
-566 8399 0
-573 8399 0
-583 8399 0
-8399 566 583 573 548 593 561 552 551 562 0
-8400 0
-1546 8401 0
-1551 8401 0
-1559 8401 0
-1563 8401 0
-1568 8401 0
-1584 8401 0
-8401 1568 1544 1546 1589 1584 1551 1574 1559 1563 0
-8402 0
-1741 8403 0
-1746 8403 0
-1748 8403 0
-1758 8403 0
-1763 8403 0
-1772 8403 0
-1781 8403 0
-1787 8403 0
-8403 1787 1741 1758 1763 1772 1746 1776 1748 1781 0
-8404 0
-1945 8405 0
-1950 8405 0
-1952 8405 0
-1954 8405 0
-1968 8405 0
-1987 8405 0
-1992 8405 0
-2007 8405 0
-2013 8405 0
-2060 8405 0
-2062 8405 0
-2074 8405 0
-2083 8405 0
-8405 2072 1950 2053 2047 2083 2088 2062 2018 2022 2060 2007 1940 1978 1976 2013 1954 1959 2002 1961 1945 2044 1987 1943 1992 2012 2049 2074 1963 1952 1968 0
-8406 0
-2089 8407 0
-2095 8407 0
-2098 8407 0
-2107 8407 0
-2116 8407 0
-2123 8407 0
-2124 8407 0
-2133 8407 0
-2135 8407 0
-8407 2124 2095 2107 2089 2098 2116 2123 2133 2135 0
-8408 0
-8399 -8401 0
-8399 -8405 0
-8401 -8403 0
-8405 -8401 0
-8407 -8401 0
-8405 -8403 0
-8407 -8405 0
8399 8401 8403 8405 8407 8404 8402 8406 8400 8408 0
-8409 565 563 564 568 579 567 549 547 591 581 588 580 560 550 569 0
-8410 0
-1547 8411 0
-1561 8411 0
-1562 8411 0
-1565 8411 0
-1567 8411 0
-8411 1569 1547 1580 1567 1561 1565 1581 1577 1555 1572 1562 1554 1548 1576 1585 0
-8412 0
-1749 8413 0
-1783 8413 0
-8413 1756 1742 1783 1757 1766 1764 1778 1760 1762 1770 1774 1752 1743 1777 1780 1782 1775 1785 1747 1749 1769 1761 1765 1753 0
-8414 0
-1946 8415 0
-1951 8415 0
-1998 8415 0
-2061 8415 0
-8416 0
-2092 8417 0
-2102 8417 0
-2103 8417 0
-2104 8417 0
-8417 2105 2102 2132 2106 2103 2104 2108 2090 2093 2127 2109 2112 2111 2091 2115 2114 2118 2117 2119 2120 2126 2128 2131 2092 0
-8418 0
-8415 -8411 -8413 0
-8417 -8411 -8413 0
8409 8413 8411 8417 8410 8414 8416 8412 8418 0
8419 -589 0
-8420 0
-8421 1579 1560 1557 1550 1543 1553 1552 1545 1564 1573 1566 1570 1571 1549 1575 1558 1556 1582 1583 1586 1587 1588 1590 1578 0
-8422 0
-1744 8423 0
-1759 8423 0
-1771 8423 0
-1779 8423 0
-1786 8423 0
-1788 8423 0
-8423 1759 1745 1767 1771 1779 1788 1750 1786 1751 1773 1784 1754 1744 1755 1768 0
-8424 0
-2004 8425 0
-2009 8425 0
-2020 8425 0
-2023 8425 0
-2028 8425 0
-2038 8425 0
-2040 8425 0
-2050 8425 0
-2056 8425 0
-2059 8425 0
-2071 8425 0
-2073 8425 0
-2077 8425 0
-2084 8425 0
-8425 1944 2043 1962 2020 1955 1942 1972 2006 2066 1999 1953 2042 2035 1969 2038 1986 2064 1967 2073 2021 1997 1983 2052 1949 2076 2087 2082 2056 2004 1993 2050 2086 2075 2068 2071 2046 2040 2028 2015 2059 1957 2033 2085 1985 2001 2030 2077 1974 2023 2084 1947 2055 1981 1995 2058 2009 1965 1996 2011 1970 0
-8426 0
-2100 8427 0
-8427 2129 2099 2130 2136 2121 2101 2134 2113 2094 2110 2097 2122 2125 2096 2100 0
-8428 0
-8425 -8419 -8423 0
8423 8421 8425 8427 8424 8422 8426 8420 8428 0
-8429 0
-8430 0
-8431 0
-8432 0
-1784 8433 0
-8433 1783 1744 1760 1766 1771 1777 1745 1784 1750 1788 1778 1742 1765 1779 1757 1747 1786 1773 1762 1761 1743 1780 1782 1774 1756 1785 1759 1753 1775 1755 1764 1754 1749 1767 1768 1769 1770 1751 1752 0
-8434 0
-1979 8435 0
-2004 8435 0
-2009 8435 0
-2032 8435 0
-2035 8435 0
-2037 8435 0
-2056 8435 0
-2058 8435 0
-8435 1967 2016 1972 2050 2030 1942 2058 2024 1971 2006 1965 1986 2081 1964 1988 1958 2035 2064 2086 2048 2070 2084 1995 1960 2014 1990 2042 1993 2004 2032 2023 2026 1944 1977 1962 1999 2040 2011 2059 2020 1997 1984 2052 2056 2054 1973 2079 2075 2065 1957 2073 2033 1982 1970 1979 2028 1966 1981 2037 2009 0
-8436 0
-2090 8437 0
-2091 8437 0
-2092 8437 0
-2093 8437 0
-2094 8437 0
-2102 8437 0
-2103 8437 0
-2104 8437 0
-2105 8437 0
-2106 8437 0
-2108 8437 0
-2109 8437 0
-2111 8437 0
-2112 8437 0
-2113 8437 0
-2114 8437 0
-2115 8437 0
-2117 8437 0
-2118 8437 0
-2119 8437 0
-2120 8437 0
-2126 8437 0
-2127 8437 0
-2128 8437 0
-2131 8437 0
-2132 8437 0
-8437 2094 2099 2132 2093 2121 2101 2092 2096 2090 2108 2111 2097 2091 2118 2115 2105 2102 2110 2112 2119 2109 2122 2104 2114 2127 2117 2120 2125 2100 2126 2113 2103 2129 2128 2106 2130 2134 2136 2131 0
-8438 0
-8437 -8435 -8433 0
8433 8435 8431 8432 8429 8434 8430 8436 8438 0
8437 8433 8431 8432 8429 8434 8436 8430 8438 0
8437 8435 8431 8432 8434 8429 8436 8430 8438 0
-1744 8443 0
-1745 8443 0
-1748 8443 0
8443 -1759 0
-1763 8443 0
-1771 8443 0
-1772 8443 0
-1773 8443 0
-1779 8443 0
-1784 8443 0
-1786 8443 0
8443 -1787 0
-1788 8443 0
-8443 1772 1748 1758 1759 1771 1787 1768 1746 1763 1741 1773 1781 1750 1779 1776 1745 1788 1786 1744 1755 1784 1767 1751 1754 0
-1940 8445 0
-1943 8445 0
-1947 8445 0
-1949 8445 0
-1953 8445 0
-1955 8445 0
-1969 8445 0
-1983 8445 0
-1985 8445 0
-1996 8445 0
-2001 8445 0
-2015 8445 0
-2018 8445 0
-2038 8445 0
-2043 8445 0
-2044 8445 0
-2053 8445 0
-2066 8445 0
-2068 8445 0
-2071 8445 0
-2077 8445 0
-2082 8445 0
-2085 8445 0
-2087 8445 0
-8445 2068 2043 2038 1985 2012 1983 2071 2001 2087 1940 2044 2082 2085 2046 2053 1953 2055 1955 1969 1947 1974 2015 2018 1949 1943 2076 1996 2077 2066 2021 0
-2089 8447 0
-2094 8447 0
-2095 8447 0
-2096 8447 0
-2097 8447 0
-2098 8447 0
-2099 8447 0
-2100 8447 0
-2101 8447 0
-2107 8447 0
-2110 8447 0
-2113 8447 0
-2116 8447 0
-2121 8447 0
-2122 8447 0
-2123 8447 0
-2124 8447 0
-2125 8447 0
-2129 8447 0
-2130 8447 0
-2133 8447 0
-2134 8447 0
-2135 8447 0
-2136 8447 0
-8447 2130 2121 2124 2123 2089 2098 2107 2113 2134 2122 2136 2100 2094 2116 2099 2129 2133 2125 2095 2101 2096 2097 2135 2110 0
-8445 -8443 0
-8447 -8443 0
-8447 -8445 0
-8449 0
-8450 0
-8451 0
-8452 0
-1772 8453 0
-1775 8453 0
-1787 8453 0
-8453 1775 1747 1783 1761 1787 1763 1770 1749 1746 1756 1772 1758 1762 1778 1764 1743 1774 1742 1776 1777 1757 1780 1781 1782 1748 1785 1760 1752 1753 1741 1765 1769 1766 0
-8454 0
-1939 8455 0
-1941 8455 0
-1951 8455 0
-1952 8455 0
-1968 8455 0
-1975 8455 0
-1976 8455 0
-1978 8455 0
-1980 8455 0
-1987 8455 0
-2002 8455 0
-2007 8455 0
-2008 8455 0
-2025 8455 0
-2027 8455 0
-2029 8455 0
-2031 8455 0
-2074 8455 0
-8455 1994 2069 1998 2061 2017 2067 2088 2051 1950 2010 2060 1939 2039 2005 2083 2047 2003 1959 1968 2049 2029 2022 2078 2007 1956 1945 2074 2002 2027 1987 2036 2013 2063 1975 2041 1941 2080 2045 1976 1946 2034 1952 1991 1951 1992 2008 1948 1978 1963 2031 1989 1961 1954 2000 1980 2072 2062 2025 2019 2057 0
-8456 0
-2092 8457 0
-2093 8457 0
-2102 8457 0
-2104 8457 0
-2106 8457 0
-2109 8457 0
-2117 8457 0
-2118 8457 0
-2120 8457 0
-2132 8457 0
-8457 2095 2132 2108 2111 2118 2093 2103 2107 2112 2124 2105 2090 2115 2104 2119 2091 2106 2109 2117 2098 2126 2114 2123 2131 2092 2120 2116 2127 2102 2128 2133 2135 2089 0
-8458 0
-8457 -8453 -8455 0
8455 8453 8451 8452 8449 8454 8450 8456 8458 0
8457 8455 8451 8452 8454 8449 8456 8450 8458 0
8459 -589 0
-8460 0
-1554 8461 0
-1561 8461 0
-1562 8461 0
-1565 8461 0
-1580 8461 0
-1585 8461 0
-8461 1557 1543 1567 1561 1564 1550 1549 1553 1581 1555 1556 1547 1560 1552 1562 1545 1585 1566 1548 1569 1570 1571 1572 1573 1575 1558 1580 1576 1577 1578 1579 1582 1583 1565 1586 1587 1588 1590 1554 0
-8462 0
-8463 0
-8464 0
-1939 8465 0
-1941 8465 0
-1994 8465 0
-2029 8465 0
-2031 8465 0
-2038 8465 0
-2045 8465 0
-2051 8465 0
-8465 2029 1985 1956 2085 2043 2067 2008 1994 2003 1941 2069 2010 1998 1969 1953 2019 1949 2055 1974 1991 2015 1980 2000 1946 2005 2001 2041 2021 2082 2017 2087 2025 1989 1955 2038 2034 2066 2036 1975 2051 2077 1947 2046 1948 2031 2057 1983 2061 1939 1996 2068 1951 2071 2027 2063 2078 2080 2039 2076 2045 0
-8466 0
-8467 0
-8468 0
-8461 -8459 -8465 0
8461 8465 8462 8463 8464 8460 8466 8467 8468 0
-547 8479 0
-548 8479 0
-549 8479 0
-550 8479 0
-551 8479 0
-552 8479 0
-560 8479 0
-561 8479 0
-562 8479 0
-563 8479 0
-564 8479 0
-566 8479 0
-567 8479 0
-568 8479 0
-569 8479 0
-573 8479 0
-579 8479 0
-580 8479 0
-581 8479 0
-583 8479 0
-588 8479 0
-591 8479 0
-593 8479 0
-1544 8481 0
-1546 8481 0
-1547 8481 0
-1548 8481 0
-1551 8481 0
-1554 8481 0
-1555 8481 0
-1559 8481 0
-1561 8481 0
8481 -1562 0
-1563 8481 0
8481 -1565 0
-1567 8481 0
8481 -1568 0
-1569 8481 0
-1572 8481 0
-1574 8481 0
-1576 8481 0
-1577 8481 0
-1580 8481 0
-1581 8481 0
-1584 8481 0
8481 -1585 0
-1589 8481 0
-8481 1561 1546 1580 1568 1562 1565 1584 1554 1569 1563 1555 1574 1577 1559 1585 1551 1548 1544 1547 1589 1581 1567 1572 1576 0
-1940 8485 0
-1943 8485 0
-1958 8485 0
-1960 8485 0
-1964 8485 0
-1966 8485 0
-1971 8485 0
-1973 8485 0
-1977 8485 0
-1979 8485 0
-1982 8485 0
-1984 8485 0
-1988 8485 0
-1990 8485 0
-2012 8485 0
-2014 8485 0
-2018 8485 0
-2024 8485 0
-2026 8485 0
-2032 8485 0
-2037 8485 0
-2044 8485 0
-2048 8485 0
-2053 8485 0
-2054 8485 0
-2070 8485 0
-2079 8485 0
-2081 8485 0
-8485 1988 2012 1943 2037 2024 1958 2070 2032 2081 1979 1982 1971 2026 2044 2053 2016 1966 1990 2079 2018 1964 2048 2014 1940 1973 2054 1984 2065 1960 1977 0
-8479 -8481 0
-8485 -8481 0
-349 8489 0
-353 8489 0
-356 8489 0
-366 8489 0
-368 8489 0
-371 8489 0
-389 8489 0
-392 8489 0
-1346 8491 0
-1353 8491 0
-1364 8491 0
-1379 8491 0
-1382 8491 0
-1388 8491 0
-1543 8493 0
-1547 8493 0
-1550 8493 0
8493 -1560 0
8493 -1562 0
8493 -1565 0
8493 -1571 0
-1583 8493 0
-1742 8495 0
-1745 8495 0
-1749 8495 0
-1757 8495 0
-1760 8495 0
-1773 8495 0
-1778 8495 0
-1784 8495 0
-8495 1784 1745 1778 1749 1742 1757 1760 1773 1775 0
-1941 8497 0
-1942 8497 0
-1946 8497 0
-1949 8497 0
-1951 8497 0
-1953 8497 0
-1960 8497 0
-1962 8497 0
-1964 8497 0
-1967 8497 0
-1977 8497 0
-1988 8497 0
-1991 8497 0
-2003 8497 0
-2006 8497 0
-2011 8497 0
-2014 8497 0
-2021 8497 0
-2045 8497 0
-2046 8497 0
-2048 8497 0
-2052 8497 0
-2059 8497 0
-2061 8497 0
-2071 8497 0
-2073 8497 0
-2084 8497 0
-2087 8497 0
-8489 -8491 0
-8489 -8493 0
-8489 -8495 0
-8491 -8493 0
-8491 -8495 0
-8497 -8491 0
-8495 -8493 0
-8497 -8495 0
-372 8499 0
-394 8499 0
8501 -1347 0
8505 -1759 0
8505 -1763 0
-1786 8505 0
-8499 -8505 -8501 0
-352 8509 0
-354 8509 0
-355 8509 0
-357 8509 0
-367 8509 0
-369 8509 0
-373 8509 0
-375 8509 0
-376 8509 0
-378 8509 0
-379 8509 0
-380 8509 0
-388 8509 0
-390 8509 0
-391 8509 0
-393 8509 0
-395 8509 0
-396 8509 0
-8509 391 360 352 388 369 393 359 361 367 354 373 375 358 379 357 380 382 383 376 390 378 395 396 355 0
-8510 0
-1351 8511 0
-1352 8511 0
-1366 8511 0
-1378 8511 0
-1386 8511 0
-1387 8511 0
-1389 8511 0
-1391 8511 0
-8511 1369 1389 1380 1386 1391 1366 1378 1354 1387 1351 1370 1352 1356 1357 1355 0
-8512 0
-1561 8513 0
-1563 8513 0
-1569 8513 0
-1574 8513 0
-1577 8513 0
-1584 8513 0
-1587 8513 0
-8513 1584 1554 1576 1553 1548 1546 1567 1551 1570 1561 1569 1549 1572 1573 1574 1563 1555 1582 1552 1585 1587 1589 1590 1577 0
-8514 0
-1748 8515 0
-1783 8515 0
-1785 8515 0
-8515 1783 1748 1762 1753 1787 1776 1785 1782 1750 1774 1747 1751 1752 1765 1766 0
-8516 0
-1944 8517 0
-1948 8517 0
-1950 8517 0
-1954 8517 0
-1956 8517 0
-1958 8517 0
-1969 8517 0
-1970 8517 0
-1971 8517 0
-1973 8517 0
-1982 8517 0
-1984 8517 0
-1985 8517 0
-1986 8517 0
-1993 8517 0
-1994 8517 0
-1996 8517 0
-1997 8517 0
-1998 8517 0
-2000 8517 0
-2005 8517 0
-2010 8517 0
-2012 8517 0
-2016 8517 0
-2019 8517 0
-2024 8517 0
-2027 8517 0
-2029 8517 0
-2032 8517 0
-2039 8517 0
-2041 8517 0
-2042 8517 0
8517 -2043 0
-2047 8517 0
-2051 8517 0
-2053 8517 0
-2054 8517 0
-2057 8517 0
-2060 8517 0
-2063 8517 0
-2072 8517 0
-2075 8517 0
-2076 8517 0
-2078 8517 0
-2081 8517 0
-2083 8517 0
-2085 8517 0
-2086 8517 0
-2088 8517 0
-8517 1994 1950 2032 2056 2083 2042 2043 1986 2060 2086 1943 2005 2051 2053 2074 2088 2065 2000 2007 1998 2081 1997 2010 2012 1954 1982 1971 1993 1956 2067 2034 2019 1944 2072 1948 2076 1985 2047 2085 1996 1969 2022 2039 1970 2057 2024 2016 1984 2041 2075 2078 2054 2029 1958 1966 2063 1961 1968 1973 2027 0
-8518 0
-8511 -8509 -8513 0
-8509 -8513 -8515 0
-8509 -8517 -8513 0
-8517 -8513 -8515 0
8511 8509 8513 8515 8510 8514 8512 8516 8518 0
-8519 0
-8520 0
-8521 1369 1350 1347 1386 1363 1345 1368 1384 1357 1351 1381 1352 1378 1375 1383 1367 1365 1385 1362 1387 1358 1390 1372 1360 1366 1392 1370 1374 1348 1359 1354 1376 1389 1371 1355 1380 1373 1391 1356 0
-8522 0
-8523 0
-8524 0
-1741 8525 0
-1743 8525 0
-1744 8525 0
-1747 8525 0
-1748 8525 0
-1756 8525 0
-1762 8525 0
-1763 8525 0
-1764 8525 0
-1772 8525 0
-1774 8525 0
-1776 8525 0
-1785 8525 0
1756 1783 1743 1747 1772 1759 1771 1786 1761 1787 1776 1777 1780 1764 1762 1765 1750 1746 -8525 1763 1774 1781 1782 1744 1785 1741 1758 1788 1779 1754 1753 1748 1755 1766 1767 1768 1769 1770 1751 1752 0
-8526 0
-8527 1994 1981 2085 2013 2032 2034 2051 1989 2053 2060 2069 1943 1998 2057 2007 2043 2066 2010 1993 2049 1982 2005 1972 2080 2015 2041 1983 2063 1985 1957 1974 2056 2036 2082 2012 2023 1996 1961 2055 1980 1944 1971 2033 2027 2074 1965 1987 1969 2083 1966 2024 2025 2076 1968 1978 2019 2029 1959 1958 1963 0
-8528 0
8525 8521 8519 8522 8523 8524 8520 8526 8528 0
8527 8521 8519 8522 8523 8524 8526 8520 8528 0
8525 8527 8522 8523 8524 8519 8526 8520 8528 0
-8529 0
-8530 0
-1346 8531 0
-1349 8531 0
-1351 8531 0
-1352 8531 0
-1353 8531 0
-1354 8531 0
-1355 8531 0
-1356 8531 0
-1357 8531 0
-1361 8531 0
-1364 8531 0
-1366 8531 0
-1369 8531 0
-1370 8531 0
-1377 8531 0
-1378 8531 0
-1379 8531 0
-1382 8531 0
-1386 8531 0
-1388 8531 0
-1389 8531 0
-1391 8531 0
-8531 1370 1352 1382 1386 1361 1349 1377 1351 1391 1369 1356 1366 1346 1387 1388 1389 1364 1379 1357 1355 1378 1380 1353 1354 0
-8532 0
-8533 0
-8534 0
-1742 8535 0
-1745 8535 0
-1747 8535 0
-1748 8535 0
-1749 8535 0
-1750 8535 0
-1760 8535 0
-1762 8535 0
-1766 8535 0
-1774 8535 0
-1775 8535 0
-1776 8535 0
-1778 8535 0
-1782 8535 0
-1783 8535 0
-1784 8535 0
-1785 8535 0
-1787 8535 0
-8535 1783 1748 1766 1787 1784 1775 1750 1762 1773 1774 1782 1760 1747 1778 1749 1757 1785 1776 1745 1742 1753 1765 1751 1752 0
-8536 0
-1948 8537 0
-1950 8537 0
-1954 8537 0
-1956 8537 0
-1970 8537 0
-1973 8537 0
-1984 8537 0
-1986 8537 0
-1997 8537 0
-2000 8537 0
-2016 8537 0
-2017 8537 0
-2022 8537 0
-2039 8537 0
-2042 8537 0
-2047 8537 0
-2054 8537 0
-2065 8537 0
-2067 8537 0
-2072 8537 0
-2075 8537 0
-2078 8537 0
-2081 8537 0
-2086 8537 0
-2088 8537 0
-8537 2078 1984 2011 1950 1942 2022 1973 2067 2017 2086 2065 1941 1954 2088 1956 2045 2054 1986 2042 1948 1970 2052 2047 1997 2000 2039 2075 2072 2081 2016 0
-8538 0
-8531 -8535 0
-8537 -8531 0
-8537 -8535 0
8535 8531 8537 8532 8533 8534 8530 8536 8529 8538 0
8541 -1388 0
8545 -1743 0
8545 -1761 0
-1939 8547 0
-1947 8547 0
-1955 8547 0
-1995 8547 0
-1999 8547 0
-2001 8547 0
-2020 8547 0
-2028 8547 0
-2030 8547 0
-2031 8547 0
8547 -2038 0
-2040 8547 0
-2050 8547 0
-2064 8547 0
-2068 8547 0
-2077 8547 0
-8541 -8547 -8545 0
-352 8549 0
-364 8549 0
-365 8549 0
-369 8549 0
-372 8549 0
-381 8549 0
-393 8549 0
-394 8549 0
-395 8549 0
-396 8549 0
-8549 358 355 393 388 364 352 350 354 360 361 359 363 357 365 367 369 370 379 373 374 375 376 378 351 380 381 382 383 384 362 386 387 385 390 391 394 395 396 372 0
-8550 0
-8551 0
-8552 0
-1545 8553 0
-1548 8553 0
-1561 8553 0
-1563 8553 0
-1568 8553 0
-1572 8553 0
-1575 8553 0
-1584 8553 0
-8553 1561 1548 1564 1557 1567 1551 1549 1556 1581 1555 1553 1544 1546 1568 1563 1545 1566 1552 1559 1569 1570 1572 1573 1574 1575 1558 1580 1576 1577 1578 1579 1582 1584 1585 1587 1588 1589 1590 1554 0
-8554 0
-8555 0
-8556 0
-1939 8557 0
-1940 8557 0
-1945 8557 0
-1947 8557 0
-1948 8557 0
-1950 8557 0
-1952 8557 0
-1954 8557 0
-1955 8557 0
-1956 8557 0
-1973 8557 0
-1976 8557 0
-1979 8557 0
-1984 8557 0
-1990 8557 0
-1995 8557 0
-1997 8557 0
-1999 8557 0
-2000 8557 0
-2001 8557 0
-2002 8557 0
-2004 8557 0
-2008 8557 0
-2009 8557 0
-2016 8557 0
-2018 8557 0
-2020 8557 0
-2022 8557 0
-2026 8557 0
-2028 8557 0
-2030 8557 0
-2031 8557 0
-2035 8557 0
-2037 8557 0
-2038 8557 0
-2039 8557 0
-2040 8557 0
-2042 8557 0
-2044 8557 0
-2047 8557 0
-2050 8557 0
-2054 8557 0
-2058 8557 0
-2062 8557 0
-2064 8557 0
-2065 8557 0
-2067 8557 0
-2070 8557 0
-2072 8557 0
-2077 8557 0
-2078 8557 0
-2079 8557 0
-2088 8557 0
-8557 2077 2031 2081 2058 1970 2020 2072 2086 2047 1940 1954 1950 2022 2088 2030 2016 2039 2070 1948 2062 2067 1997 1990 2026 1945 2018 1984 2065 1999 1952 2004 2054 2028 1939 2038 1986 2064 2035 2037 2042 2001 2009 2040 1992 2050 2079 1979 1956 2002 1995 1947 2044 2000 2075 2068 2078 2008 1976 1973 1955 0
-8558 0
-8549 -8557 -8553 0
8557 8549 8551 8552 8554 8555 8556 8550 8558 0
8553 8557 8552 8550 8554 8555 8556 8551 8558 0
-393 8559 0
-8559 359 354 393 355 356 349 369 357 353 358 361 366 367 368 388 379 373 375 376 377 378 352 380 382 383 360 389 390 391 392 395 396 371 0
-8560 0
-8561 0
-8562 0
-1543 8563 0
-1547 8563 0
-1560 8563 0
-1565 8563 0
-1586 8563 0
-8563 1576 1565 1550 1567 1562 1585 1551 1560 1554 1553 1549 1547 1546 1563 1543 1561 1569 1570 1571 1572 1573 1574 1548 1555 1582 1583 1552 1584 1586 1587 1589 1590 1577 0
-8564 0
-8565 0
-8566 0
-1943 8567 0
-1944 8567 0
-1946 8567 0
-1949 8567 0
-1951 8567 0
-1953 8567 0
-1958 8567 0
-1961 8567 0
-1962 8567 0
-1967 8567 0
-1968 8567 0
-1969 8567 0
-1971 8567 0
-1975 8567 0
-1977 8567 0
-1982 8567 0
-1985 8567 0
-1988 8567 0
-1991 8567 0
-1993 8567 0
-1994 8567 0
-1996 8567 0
-1998 8567 0
-2003 8567 0
-2005 8567 0
-2006 8567 0
-2007 8567 0
-2010 8567 0
-2012 8567 0
-2019 8567 0
-2021 8567 0
-2024 8567 0
-2027 8567 0
-2029 8567 0
-2032 8567 0
-2034 8567 0
-2041 8567 0
-2043 8567 0
-2046 8567 0
-2048 8567 0
-2053 8567 0
-2056 8567 0
-2057 8567 0
-2059 8567 0
-2060 8567 0
-2061 8567 0
-2074 8567 0
-2083 8567 0
-2084 8567 0
2085 -8567 1946 2043 2060 2056 2074 2083 1994 2014 1943 2051 2029 2087 2032 2027 1998 2006 1993 2076 1968 1966 2005 1953 1964 1982 2061 1971 2059 2048 2021 1951 1958 2073 2041 1944 2024 1991 1960 1975 2010 2071 1961 2034 2007 2019 1969 1967 2053 1962 1949 2012 1977 1988 1985 2046 2057 2084 2003 2063 1996 0
-8568 0
-8559 -8563 -8567 0
8559 8563 8561 8562 8560 8564 8565 8566 8568 0
8567 8563 8562 8560 8564 8565 8566 8561 8568 0
-350 8569 0
-351 8569 0
-353 8569 0
-356 8569 0
-364 8569 0
-365 8569 0
-366 8569 0
-368 8569 0
-370 8569 0
8569 -371 0
-372 8569 0
-374 8569 0
-377 8569 0
-381 8569 0
-389 8569 0
-392 8569 0
-394 8569 0
-1543 8573 0
-1544 8573 0
-1545 8573 0
-1547 8573 0
-1550 8573 0
-1558 8573 0
8573 -1559 0
8573 -1560 0
8573 -1562 0
-1564 8573 0
8573 -1565 0
-1566 8573 0
8573 -1568 0
8573 -1571 0
8573 -1575 0
-1583 8573 0
-1586 8573 0
-1588 8573 0
-8573 1564 1545 1565 1568 1562 1560 1566 1559 1575 1557 1544 1586 1571 1581 1547 1550 1558 1588 1579 1583 1580 1543 1556 1578 0
-1941 8577 0
-1942 8577 0
-1957 8577 0
-1959 8577 0
-1963 8577 0
-1965 8577 0
-1972 8577 0
-1974 8577 0
-1978 8577 0
-1980 8577 0
-1981 8577 0
-1983 8577 0
-1987 8577 0
-1989 8577 0
-2011 8577 0
-2013 8577 0
-2015 8577 0
-2017 8577 0
-2023 8577 0
-2025 8577 0
-2033 8577 0
-2036 8577 0
-2045 8577 0
-2049 8577 0
-2052 8577 0
-2055 8577 0
-2066 8577 0
-2069 8577 0
-2080 8577 0
-2082 8577 0
-8577 1972 2011 2017 1942 2066 1978 1957 2036 2069 1980 1941 1981 2033 2023 1989 1983 1965 2025 2052 2082 1959 1963 2080 2013 2055 1987 2015 2049 2045 1974 0
-8569 -8573 0
-8577 -8569 0
-8577 -8573 0
-201 8579 0
-202 8579 0
-209 8579 0
-222 8579 0
-271 8579 0
-277 8579 0
-281 8579 0
-305 8579 0
-312 8579 0
-331 8579 0
-8579 201 202 347 271 206 213 222 224 237 263 227 251 266 308 248 319 344 235 321 277 306 211 274 209 220 281 312 333 305 331 0
-8580 0
-549 8581 0
-550 8581 0
-554 8581 0
-555 8581 0
-560 8581 0
-563 8581 0
-568 8581 0
-571 8581 0
-584 8581 0
-585 8581 0
-588 8581 0
-590 8581 0
-8581 568 590 588 550 563 584 585 555 554 560 549 571 0
-8582 0
-597 8583 0
-598 8583 0
-602 8583 0
-605 8583 0
-609 8583 0
-616 8583 0
-618 8583 0
-623 8583 0
-631 8583 0
-644 8583 0
-659 8583 0
-662 8583 0
-667 8583 0
-670 8583 0
-673 8583 0
-677 8583 0
-701 8583 0
-702 8583 0
-708 8583 0
-715 8583 0
-727 8583 0
-729 8583 0
-740 8583 0
-743 8583 0
-8583 598 701 602 605 618 667 727 729 620 702 704 623 659 631 662 715 717 708 607 616 677 609 743 647 633 673 740 597 670 644 0
-8584 0
-1791 8585 0
-1792 8585 0
-1796 8585 0
-1799 8585 0
-1810 8585 0
-1812 8585 0
-1814 8585 0
-1817 8585 0
-1827 8585 0
-1838 8585 0
-1841 8585 0
-1853 8585 0
-1856 8585 0
-1861 8585 0
-1864 8585 0
-1867 8585 0
-1895 8585 0
-1898 8585 0
-1902 8585 0
-1909 8585 0
-1911 8585 0
-1921 8585 0
-1923 8585 0
-1934 8585 0
-1937 8585 0
-8585 1911 1799 1801 1867 1792 1923 1864 1791 1937 1856 1838 1810 1841 1909 1796 1895 1814 1921 1853 1871 1861 1827 1934 1902 1812 1817 1896 1825 1803 1898 0
-8586 0
-2092 8587 0
-2096 8587 0
-2097 8587 0
-2106 8587 0
-2108 8587 0
-2111 8587 0
-2113 8587 0
-2122 8587 0
-2125 8587 0
-2127 8587 0
-2130 8587 0
-8587 2096 2092 2130 2097 2113 2122 2127 2111 2091 2125 2106 2108 0
-8588 0
-8581 -8579 0
-8583 -8579 0
-8585 -8579 0
-8587 -8579 0
-8581 -8583 0
-8587 -8581 0
-8585 -8583 0
-8587 -8583 0
-8587 -8585 0
8579 8583 8581 8585 8587 8584 8582 8586 8580 8588 0
-212 8589 0
-223 8589 0
-225 8589 0
-232 8589 0
-239 8589 0
-243 8589 0
-247 8589 0
-249 8589 0
-255 8589 0
-268 8589 0
-273 8589 0
-275 8589 0
-285 8589 0
-291 8589 0
-296 8589 0
-304 8589 0
-310 8589 0
-326 8589 0
-339 8589 0
-342 8589 0
-8589 264 291 200 283 275 217 269 310 339 236 300 212 223 243 342 340 239 304 252 330 259 293 296 250 261 255 280 285 205 240 219 262 215 225 286 234 288 290 207 295 249 278 297 238 247 324 298 273 199 241 309 232 268 315 328 322 318 329 337 326 0
-8590 0
-547 8591 0
-548 8591 0
-551 8591 0
-552 8591 0
-553 8591 0
-556 8591 0
-557 8591 0
-558 8591 0
-559 8591 0
-561 8591 0
-562 8591 0
-564 8591 0
-565 8591 0
-566 8591 0
-567 8591 0
-569 8591 0
-570 8591 0
-572 8591 0
-573 8591 0
-574 8591 0
-575 8591 0
-576 8591 0
-577 8591 0
-578 8591 0
-579 8591 0
-580 8591 0
-581 8591 0
-582 8591 0
-583 8591 0
-586 8591 0
-587 8591 0
-589 8591 0
-591 8591 0
-592 8591 0
-593 8591 0
-594 8591 0
-8592 0
-596 8593 0
-613 8593 0
-615 8593 0
-619 8593 0
-621 8593 0
-628 8593 0
-630 8593 0
-634 8593 0
-637 8593 0
-639 8593 0
-643 8593 0
-651 8593 0
-655 8593 0
-657 8593 0
-660 8593 0
-664 8593 0
-665 8593 0
-669 8593 0
-671 8593 0
-676 8593 0
-679 8593 0
-681 8593 0
-684 8593 0
-686 8593 0
-689 8593 0
-691 8593 0
-692 8593 0
-693 8593 0
-694 8593 0
-696 8593 0
-700 8593 0
-705 8593 0
-706 8593 0
-711 8593 0
-714 8593 0
-720 8593 0
-722 8593 0
-724 8593 0
-733 8593 0
-738 8593 0
-8594 0
8595 -1845 0
8595 -1880 0
8595 -1881 0
-8596 0
-8597 0
-8598 0
-8589 -8593 -8591 0
-8589 -8595 -8591 0
-8589 -8593 -8595 0
-8593 -8595 -8591 0
8591 8589 8593 8592 8590 8594 8596 8597 8598 0
8599 -214 0
-216 8599 0
-244 8599 0
-246 8599 0
-254 8599 0
-257 8599 0
-258 8599 0
-260 8599 0
-265 8599 0
-289 8599 0
-294 8599 0
-299 8599 0
-301 8599 0
-302 8599 0
-323 8599 0
8599 -341 0
-346 8599 0
-348 8599 0
-627 8603 0
-638 8603 0
-656 8603 0
8603 -672 0
-678 8603 0
-695 8603 0
-703 8603 0
8603 -710 0
8605 -1843 0
8605 -1844 0
8605 -1879 0
-2089 8607 0
-2090 8607 0
-2093 8607 0
-2094 8607 0
-2095 8607 0
-2098 8607 0
-2099 8607 0
8607 -2100 0
-2101 8607 0
-2102 8607 0
-2103 8607 0
-2104 8607 0
-2105 8607 0
-2107 8607 0
-2109 8607 0
-2110 8607 0
-2112 8607 0
-2114 8607 0
8607 -2115 0
-2116 8607 0
-2117 8607 0
-2118 8607 0
-2119 8607 0
-2120 8607 0
-2121 8607 0
-2123 8607 0
-2124 8607 0
-2126 8607 0
-2128 8607 0
-2129 8607 0
-2131 8607 0
8607 -2132 0
-2133 8607 0
-2134 8607 0
-2135 8607 0
-2136 8607 0
-8599 -8603 -8605 0
-8599 -8607 -8605 0
-8603 -8607 -8605 0
8609 -219 0
8609 -223 0
-225 8609 0
8609 -293 0
8613 -671 0
-679 8613 0
-681 8613 0
-689 8613 0
-711 8613 0
8615 -1813 0
8615 -1815 0
8615 -1837 0
8615 -1839 0
8615 -1843 0
8615 -1844 0
8615 -1879 0
8615 -1886 0
8615 -1916 0
8615 -1919 0
-8615 1879 1794 1828 1855 1860 1874 1903 1933 1935 1913 1886 1875 1839 1807 1873 1932 1821 1862 1844 1837 1846 1916 1831 1830 1848 1818 1857 1819 1832 1863 1865 1869 1816 1815 1833 1835 1793 1882 1883 1884 1822 1891 1893 1899 1811 1813 1901 1809 1907 1843 1808 1910 1905 1877 1906 1924 1930 1926 1919 1824 0
-2090 8617 0
-2094 8617 0
8617 -2100 0
-2101 8617 0
-2102 8617 0
-2103 8617 0
-2105 8617 0
-2107 8617 0
-2109 8617 0
-2112 8617 0
8617 -2115 0
-2116 8617 0
-2117 8617 0
-2118 8617 0
-2120 8617 0
-2121 8617 0
-2123 8617 0
-2124 8617 0
-2128 8617 0
-2131 8617 0
8617 -2132 0
-2133 8617 0
-2134 8617 0
-2135 8617 0
-8609 -8615 -8613 0
-8609 -8617 -8615 0
-8617 -8615 -8613 0
-201 8619 0
-202 8619 0
-210 8619 0
-214 8619 0
-216 8619 0
-230 8619 0
-233 8619 0
-244 8619 0
-246 8619 0
-257 8619 0
-260 8619 0
-271 8619 0
-276 8619 0
-282 8619 0
-299 8619 0
-302 8619 0
-305 8619 0
-307 8619 0
-312 8619 0
-314 8619 0
-325 8619 0
-332 8619 0
-335 8619 0
-338 8619 0
-341 8619 0
-346 8619 0
-348 8619 0
-8619 201 341 271 277 230 335 246 346 257 348 233 302 244 216 214 210 282 260 208 305 325 299 312 327 307 338 276 332 314 202 0
-8620 0
-8621 0
-8622 0
-598 8623 0
-604 8623 0
-606 8623 0
-610 8623 0
-612 8623 0
-626 8623 0
-629 8623 0
-640 8623 0
-642 8623 0
-653 8623 0
-656 8623 0
-667 8623 0
-672 8623 0
-673 8623 0
-678 8623 0
-695 8623 0
-698 8623 0
-701 8623 0
-703 8623 0
-708 8623 0
-710 8623 0
-723 8623 0
-728 8623 0
-731 8623 0
-734 8623 0
-737 8623 0
-742 8623 0
-744 8623 0
-8623 698 673 710 721 737 742 703 667 744 612 723 597 731 701 598 672 695 734 656 653 728 708 640 678 642 606 626 610 629 604 0
-8624 0
-1791 8625 0
-1792 8625 0
-1798 8625 0
-1800 8625 0
-1804 8625 0
-1806 8625 0
-1820 8625 0
-1823 8625 0
-1836 8625 0
-1847 8625 0
-1850 8625 0
-1861 8625 0
-1867 8625 0
-1872 8625 0
-1889 8625 0
-1892 8625 0
-1895 8625 0
-1897 8625 0
-1902 8625 0
-1904 8625 0
-1917 8625 0
-1922 8625 0
-1925 8625 0
-1928 8625 0
-1936 8625 0
-1938 8625 0
-8625 1791 1867 1792 1938 1861 1917 1892 1889 1922 1836 1925 1850 1928 1847 1820 1915 1800 1902 1936 1895 1806 1798 1823 1834 1804 1872 1897 1904 1931 1866 0
-8626 0
-8627 0
-8628 0
-8623 -8619 0
-8625 -8619 0
-8625 -8623 0
8623 8619 8625 8622 8620 8624 8621 8626 8627 8628 0
-199 8629 0
-200 8629 0
8629 -205 0
-206 8629 0
-207 8629 0
-209 8629 0
-211 8629 0
8629 -212 0
-213 8629 0
-215 8629 0
8629 -220 0
-222 8629 0
-224 8629 0
-227 8629 0
-235 8629 0
-236 8629 0
-237 8629 0
-239 8629 0
-248 8629 0
-250 8629 0
8629 -251 0
-252 8629 0
-255 8629 0
8629 -259 0
8629 -261 0
-262 8629 0
-263 8629 0
-264 8629 0
-266 8629 0
-268 8629 0
-269 8629 0
-274 8629 0
8629 -278 0
-280 8629 0
8629 -281 0
-286 8629 0
-288 8629 0
-290 8629 0
-291 8629 0
-295 8629 0
-297 8629 0
-298 8629 0
8629 -300 0
-304 8629 0
-306 8629 0
-308 8629 0
-310 8629 0
-318 8629 0
-319 8629 0
-321 8629 0
-322 8629 0
-324 8629 0
-328 8629 0
8629 -330 0
-331 8629 0
-333 8629 0
-337 8629 0
8629 -339 0
-344 8629 0
-347 8629 0
-8629 200 291 297 347 321 274 212 251 222 266 300 261 215 239 339 213 268 306 255 205 252 330 250 304 262 237 269 236 324 207 331 263 220 281 286 333 206 259 264 209 298 227 288 224 280 295 211 319 199 322 290 310 328 308 235 337 248 344 278 318 0
-595 8633 0
-596 8633 0
-601 8633 0
-602 8633 0
-603 8633 0
-605 8633 0
-607 8633 0
-608 8633 0
-609 8633 0
-611 8633 0
-616 8633 0
-618 8633 0
-620 8633 0
-623 8633 0
-631 8633 0
-632 8633 0
-633 8633 0
-635 8633 0
8633 -644 0
-646 8633 0
-647 8633 0
-648 8633 0
-651 8633 0
-655 8633 0
8633 -657 0
-658 8633 0
-659 8633 0
-660 8633 0
-662 8633 0
-664 8633 0
-665 8633 0
8633 -670 0
-674 8633 0
8633 -676 0
-677 8633 0
-682 8633 0
-684 8633 0
8633 -686 0
8633 -687 0
-691 8633 0
-693 8633 0
-694 8633 0
-696 8633 0
-700 8633 0
-702 8633 0
8633 -704 0
8633 -706 0
-714 8633 0
8633 -715 0
8633 -717 0
-718 8633 0
8633 -720 0
-724 8633 0
8633 -726 0
-727 8633 0
-729 8633 0
-733 8633 0
-735 8633 0
-740 8633 0
-743 8633 0
-1789 8635 0
-1790 8635 0
-1795 8635 0
-1797 8635 0
-1803 8635 0
-1805 8635 0
-1810 8635 0
-1812 8635 0
8635 -1814 0
8635 -1817 0
-1825 8635 0
-1826 8635 0
-1829 8635 0
8635 -1840 0
8635 -1841 0
8635 -1842 0
8635 -1845 0
-1849 8635 0
-1851 8635 0
-1852 8635 0
-1854 8635 0
-1858 8635 0
-1859 8635 0
-1868 8635 0
8635 -1871 0
8635 -1876 0
8635 -1878 0
8635 -1880 0
8635 -1881 0
-1885 8635 0
-1887 8635 0
-1888 8635 0
-1890 8635 0
-1894 8635 0
-1896 8635 0
-1908 8635 0
8635 -1912 0
8635 -1914 0
-1929 8635 0
-8635 1881 1845 1795 1817 1914 1789 1854 1876 1878 1853 1810 1937 1842 1912 1908 1851 1880 1841 1838 1909 1890 1868 1896 1840 1921 1797 1929 1826 1856 1858 1859 1927 1864 1887 1871 1911 1827 1829 1825 1796 1934 1802 1803 1852 1801 1894 1898 1870 1805 1923 1849 1920 1918 1888 1812 1799 1885 1900 1814 1790 0
-2089 8637 0
-2090 8637 0
-2091 8637 0
-2092 8637 0
-2093 8637 0
-2094 8637 0
-2095 8637 0
-2096 8637 0
-2097 8637 0
-2098 8637 0
-2099 8637 0
-2100 8637 0
-2101 8637 0
-2102 8637 0
-2103 8637 0
-2104 8637 0
-2105 8637 0
-2106 8637 0
-2107 8637 0
-2108 8637 0
-2109 8637 0
-2110 8637 0
-2111 8637 0
-2112 8637 0
-2113 8637 0
-2114 8637 0
-2115 8637 0
-2116 8637 0
-2117 8637 0
-2118 8637 0
-2119 8637 0
-2120 8637 0
-2121 8637 0
-2122 8637 0
-2123 8637 0
-2124 8637 0
-2125 8637 0
-2126 8637 0
-2127 8637 0
-2128 8637 0
-2129 8637 0
-2130 8637 0
-2131 8637 0
-2132 8637 0
-2133 8637 0
-2134 8637 0
-2135 8637 0
-2136 8637 0
-8637 2090 2097 2132 2108 2099 2094 2093 2104 2115 2101 2112 2117 2106 2102 2092 2126 2105 2095 2131 2100 2120 2110 2111 2098 2122 2114 2107 2116 2089 2118 2119 2109 2121 2103 2123 2124 2125 2113 2127 2129 2130 2096 2128 2133 2134 2135 2136 2091 0
-2091 8638 0
-2092 8638 0
-2096 8638 0
-2097 8638 0
-2106 8638 0
-2108 8638 0
-2111 8638 0
-2113 8638 0
-2122 8638 0
-2125 8638 0
-2127 8638 0
-2130 8638 0
-8638 2130 2111 2092 2127 2108 2091 2097 2113 2125 2122 2096 2106 0
-8637 -8629 -8633 0
-8637 -8629 -8635 0
-8638 -8629 -8635 0
-8638 -8637 -8629 0
-8637 -8633 -8635 0
-8638 -8637 -8633 0
-8638 -8637 -8635 0
-210 8639 0
-214 8639 0
-276 8639 0
-282 8639 0
-307 8639 0
-325 8639 0
-332 8639 0
-341 8639 0
-8639 214 291 297 318 299 233 257 280 259 200 252 264 216 302 210 239 290 236 348 339 341 278 304 300 246 215 212 269 250 260 261 262 255 282 295 286 298 268 288 230 324 332 307 310 314 325 335 322 327 328 207 244 208 337 338 205 276 199 330 346 0
-8640 0
-551 8641 0
-553 8641 0
-556 8641 0
-558 8641 0
-559 8641 0
-562 8641 0
-564 8641 0
-565 8641 0
-569 8641 0
-570 8641 0
-574 8641 0
-575 8641 0
-577 8641 0
-578 8641 0
-580 8641 0
-583 8641 0
-589 8641 0
-591 8641 0
-593 8641 0
-8642 0
-606 8643 0
-610 8643 0
-655 8643 0
-665 8643 0
-678 8643 0
-684 8643 0
-687 8643 0
-691 8643 0
-703 8643 0
-706 8643 0
-721 8643 0
-728 8643 0
-737 8643 0
-744 8643 0
-8643 698 744 724 687 726 674 678 682 703 710 612 734 657 672 610 640 694 629 648 676 656 608 646 691 665 695 731 603 660 651 596 686 611 700 601 706 635 626 684 655 693 632 742 664 696 720 718 714 737 728 606 653 658 723 733 604 735 642 595 721 0
-8644 0
-1845 8645 0
-1880 8645 0
-1881 8645 0
-8645 1908 1789 1881 1888 1880 1889 1845 1890 1851 1929 1931 1795 1876 1936 1938 1834 1892 1797 1878 1920 1798 1928 1850 1842 1805 1858 1859 1866 1868 1870 1872 1806 1820 1823 1826 1885 1887 1790 1840 1836 1927 1804 1897 1800 1852 1900 1854 1802 1894 1829 1912 1915 1847 1849 1925 1918 1917 1904 1922 1914 0
-8646 0
-8647 0
-8648 0
-8639 -8645 -8641 0
-8639 -8645 -8643 0
-8643 -8645 -8641 0
8639 8641 8643 8642 8640 8644 8646 8647 8648 0
8645 8643 8639 8640 8644 8642 8646 8647 8648 0
-203 8649 0
-204 8649 0
-206 8649 0
-209 8649 0
-211 8649 0
-213 8649 0
-218 8649 0
-220 8649 0
-221 8649 0
-222 8649 0
-224 8649 0
-226 8649 0
-227 8649 0
-228 8649 0
-229 8649 0
-231 8649 0
-235 8649 0
-237 8649 0
-242 8649 0
-245 8649 0
-251 8649 0
-253 8649 0
-254 8649 0
-256 8649 0
-258 8649 0
-263 8649 0
-265 8649 0
-266 8649 0
-267 8649 0
-270 8649 0
-272 8649 0
-279 8649 0
-281 8649 0
-284 8649 0
-287 8649 0
-289 8649 0
-292 8649 0
-294 8649 0
-301 8649 0
-303 8649 0
-306 8649 0
-308 8649 0
-311 8649 0
-313 8649 0
-316 8649 0
-317 8649 0
-319 8649 0
-320 8649 0
-321 8649 0
-323 8649 0
-331 8649 0
-333 8649 0
-334 8649 0
-336 8649 0
-343 8649 0
-344 8649 0
-345 8649 0
-347 8649 0
-8649 270 218 237 220 221 228 292 224 204 316 222 226 251 287 334 272 229 209 347 245 284 213 253 254 256 258 263 265 235 267 227 266 242 211 281 248 289 274 294 301 303 306 308 311 206 313 279 317 319 320 321 323 331 333 231 336 343 344 345 203 0
-8650 0
-547 8651 0
-548 8651 0
-549 8651 0
-550 8651 0
-551 8651 0
-552 8651 0
-553 8651 0
-554 8651 0
-555 8651 0
-556 8651 0
-557 8651 0
8651 -558 0
-559 8651 0
-560 8651 0
-561 8651 0
-562 8651 0
-563 8651 0
-564 8651 0
-565 8651 0
-566 8651 0
-567 8651 0
-568 8651 0
-569 8651 0
-570 8651 0
-571 8651 0
-572 8651 0
-573 8651 0
-574 8651 0
-575 8651 0
-576 8651 0
-577 8651 0
-578 8651 0
-579 8651 0
-580 8651 0
-581 8651 0
-582 8651 0
-583 8651 0
-584 8651 0
-585 8651 0
-586 8651 0
-587 8651 0
-588 8651 0
8651 -589 0
-590 8651 0
-591 8651 0
-592 8651 0
-593 8651 0
-594 8651 0
-8651 547 560 548 580 558 591 553 577 552 556 557 589 573 561 562 563 564 565 566 554 568 567 570 569 572 555 574 575 551 549 559 578 579 581 582 583 571 584 586 587 588 576 585 590 592 593 594 550 0
-549 8652 0
-550 8652 0
-554 8652 0
-555 8652 0
-560 8652 0
-563 8652 0
-568 8652 0
-571 8652 0
-584 8652 0
-585 8652 0
-588 8652 0
-590 8652 0
-8652 568 590 588 550 584 563 585 555 549 560 554 571 0
-599 8653 0
-600 8653 0
-602 8653 0
-605 8653 0
-607 8653 0
-609 8653 0
-614 8653 0
-616 8653 0
-617 8653 0
-618 8653 0
-620 8653 0
-622 8653 0
-623 8653 0
-624 8653 0
-625 8653 0
-631 8653 0
-633 8653 0
-641 8653 0
-644 8653 0
-647 8653 0
-649 8653 0
-650 8653 0
-652 8653 0
-654 8653 0
-659 8653 0
-661 8653 0
-662 8653 0
-663 8653 0
-666 8653 0
-668 8653 0
-670 8653 0
-675 8653 0
-677 8653 0
-680 8653 0
-683 8653 0
-685 8653 0
-688 8653 0
-690 8653 0
-697 8653 0
-699 8653 0
-702 8653 0
-704 8653 0
-707 8653 0
-709 8653 0
-712 8653 0
-713 8653 0
-715 8653 0
-716 8653 0
-717 8653 0
-719 8653 0
-727 8653 0
-729 8653 0
-730 8653 0
-732 8653 0
-739 8653 0
-740 8653 0
-741 8653 0
-743 8653 0
-8653 712 644 670 675 685 605 729 727 717 641 602 650 647 624 707 622 633 652 620 617 631 627 709 600 697 623 618 614 599 662 609 638 663 616 680 607 699 661 690 668 732 713 688 654 683 625 715 716 649 719 659 704 730 666 739 740 741 743 702 677 0
-8654 0
-1794 8655 0
-1796 8655 0
-1799 8655 0
-1808 8655 0
-1811 8655 0
-1812 8655 0
-1814 8655 0
-1817 8655 0
-1818 8655 0
-1832 8655 0
-1838 8655 0
-1841 8655 0
-1843 8655 0
-1844 8655 0
-1846 8655 0
-1848 8655 0
-1855 8655 0
-1856 8655 0
-1879 8655 0
-1893 8655 0
-1909 8655 0
-1910 8655 0
-1911 8655 0
-1921 8655 0
-1923 8655 0
-1926 8655 0
-8655 1879 1855 1794 1882 1827 1903 1937 1832 1913 1884 1808 1848 1810 1818 1841 1877 1844 1926 1825 1933 1811 1819 1817 1816 1812 1853 1838 1856 1857 1860 1846 1864 1862 1871 1874 1803 1821 1801 1835 1935 1799 1893 1869 1814 1891 1896 1796 1898 1793 1901 1910 1843 1906 1909 1923 1924 1907 1921 1911 1934 0
-8656 0
-8657 0
-8658 0
-8652 -8649 -8651 0
-8649 -8653 -8651 0
-8649 -8655 -8651 0
-8652 -8653 -8651 0
-8652 -8655 -8651 0
-8653 -8655 -8651 0
8649 8653 8652 8655 8654 8650 8656 8657 8658 0
-201 8659 0
-202 8659 0
-217 8659 0
-219 8659 0
-223 8659 0
-225 8659 0
-232 8659 0
-234 8659 0
-238 8659 0
-240 8659 0
-241 8659 0
-243 8659 0
-247 8659 0
-271 8659 0
-273 8659 0
-283 8659 0
-296 8659 0
-305 8659 0
-309 8659 0
-312 8659 0
-315 8659 0
-326 8659 0
-329 8659 0
-340 8659 0
-342 8659 0
-8659 271 305 225 296 342 326 309 219 217 202 223 232 238 243 201 247 285 329 293 277 283 240 234 312 315 249 273 241 340 275 0
-8660 0
-8661 0
-8662 0
-598 8663 0
-613 8663 0
-615 8663 0
-619 8663 0
-621 8663 0
-628 8663 0
-634 8663 0
-636 8663 0
-637 8663 0
-643 8663 0
-645 8663 0
-667 8663 0
-669 8663 0
-671 8663 0
-673 8663 0
-679 8663 0
-681 8663 0
-689 8663 0
-701 8663 0
-705 8663 0
-708 8663 0
-722 8663 0
-736 8663 0
-8663 708 725 671 736 705 667 645 598 701 597 621 615 689 692 673 636 738 669 613 634 711 639 722 630 679 643 637 619 628 681 0
-8664 0
-1791 8665 0
-1792 8665 0
-1807 8665 0
-1809 8665 0
-1813 8665 0
-1815 8665 0
-1822 8665 0
-1828 8665 0
-1831 8665 0
-1837 8665 0
-1839 8665 0
-1863 8665 0
-1865 8665 0
-1867 8665 0
-1873 8665 0
-1875 8665 0
-1883 8665 0
-1899 8665 0
-1902 8665 0
-1916 8665 0
-1919 8665 0
-8665 1895 1792 1873 1813 1809 1886 1932 1861 1883 1875 1863 1867 1902 1865 1916 1807 1919 1831 1815 1828 1791 1905 1833 1822 1930 1839 1899 1837 1824 1830 0
-8666 0
-8667 0
-8668 0
-8663 -8659 0
-8665 -8659 0
-8665 -8663 0
8659 8663 8665 8662 8660 8664 8661 8666 8667 8668 0
-4 8669 0
-13 8669 0
-29 8669 0
-32 8669 0
-57 8669 0
-60 8669 0
8671 -201 0
-202 8671 0
-206 8671 0
-209 8671 0
-211 8671 0
-213 8671 0
-244 8671 0
-246 8671 0
-255 8671 0
-270 8671 0
-289 8671 0
-295 8671 0
-297 8671 0
-301 8671 0
-303 8671 0
-318 8671 0
-326 8671 0
-329 8671 0
-340 8671 0
-342 8671 0
-8671 201 230 289 220 233 297 270 206 326 329 224 301 255 213 288 340 318 211 256 295 244 258 222 303 286 342 246 227 209 202 0
-1047 8673 0
-1055 8673 0
8673 -1059 0
-1066 8673 0
-1068 8673 0
-1073 8673 0
-1090 8673 0
-1092 8673 0
-1102 8673 0
-1104 8673 0
8673 -1116 0
-1132 8673 0
-1134 8673 0
-1135 8673 0
-1141 8673 0
-1143 8673 0
-1147 8673 0
-1149 8673 0
-1164 8673 0
-1175 8673 0
-1186 8673 0
-1188 8673 0
-1197 8675 0
-1266 8675 0
-1285 8675 0
-1346 8677 0
-1349 8677 0
-1353 8677 0
8677 -1366 0
-1372 8677 0
8677 -1384 0
-1390 8677 0
-8677 1374 1355 1384 1390 1353 1366 1346 1349 1357 1372 0
-8669 -8671 0
-8669 -8673 0
-8669 -8677 0
-8673 -8671 0
-8675 -8671 0
-8673 -8677 0
-8675 -8677 0
8679 -1 0
-18 8679 0
8679 -43 0
-73 8679 0
8679 -113 0
-205 8681 0
-208 8681 0
-210 8681 0
-212 8681 0
-214 8681 0
-216 8681 0
-218 8681 0
-226 8681 0
-232 8681 0
-238 8681 0
-239 8681 0
-240 8681 0
-241 8681 0
-247 8681 0
-249 8681 0
-250 8681 0
-253 8681 0
-257 8681 0
-259 8681 0
-265 8681 0
-266 8681 0
-267 8681 0
-269 8681 0
8681 -271 0
-276 8681 0
-283 8681 0
-290 8681 0
-293 8681 0
-302 8681 0
-312 8681 0
-314 8681 0
-316 8681 0
-319 8681 0
-320 8681 0
-323 8681 0
-1045 8683 0
-1049 8683 0
-1058 8683 0
-1064 8683 0
8683 -1080 0
8683 -1084 0
-1086 8683 0
-1087 8683 0
-1093 8683 0
8683 -1099 0
-1103 8683 0
8683 -1112 0
8683 -1113 0
-1117 8683 0
8683 -1124 0
8683 -1129 0
-1136 8683 0
8683 -1144 0
8683 -1148 0
8683 -1157 0
8683 -1158 0
-1165 8683 0
8683 -1166 0
-1180 8683 0
8683 -1193 0
-1199 8685 0
-1201 8685 0
-1206 8685 0
-1210 8685 0
-1230 8685 0
-1234 8685 0
-1237 8685 0
-1243 8685 0
-1257 8685 0
-1265 8685 0
-1267 8685 0
-1269 8685 0
-1274 8685 0
-1286 8685 0
-1296 8685 0
-1300 8685 0
-1308 8685 0
-1327 8685 0
-1339 8685 0
-1343 8685 0
8687 -1352 0
-1359 8687 0
-1363 8687 0
8687 -1367 0
-1376 8687 0
-1377 8687 0
8687 -1385 0
8687 -1386 0
-1388 8687 0
-8679 -8683 -8681 0
-8685 -8679 -8681 0
-8679 -8687 -8681 0
-8685 -8679 -8683 0
-8679 -8687 -8683 0
-8687 -8683 -8681 0
-236 8691 0
-251 8691 0
-260 8691 0
-262 8691 0
-268 8691 0
-277 8691 0
-291 8691 0
-305 8691 0
-307 8691 0
-317 8691 0
-322 8691 0
-327 8691 0
-332 8691 0
-348 8691 0
-8691 236 291 260 346 223 322 287 221 282 228 339 299 325 237 200 242 248 252 254 348 235 263 268 305 272 274 275 219 264 280 284 285 277 292 294 296 231 251 307 308 310 313 315 341 317 262 321 217 324 215 327 332 336 335 207 330 338 345 225 204 0
8693 -1081 0
8693 -1100 0
8693 -1137 0
8697 -1383 0
-8691 -8697 -8693 0
-200 8701 0
8701 -214 0
8701 -221 0
-236 8701 0
-252 8701 0
-272 8701 0
-275 8701 0
-277 8701 0
-282 8701 0
-285 8701 0
-296 8701 0
8701 -305 0
-307 8701 0
8701 -313 0
8701 -315 0
8703 -1060 0
8703 -1137 0
8707 -1381 0
8707 -1383 0
-8701 -8707 -8703 0
-3 8709 0
-27 8709 0
-53 8709 0
-96 8709 0
-120 8709 0
-127 8709 0
-129 8709 0
8711 -201 0
-202 8711 0
-217 8711 0
-219 8711 0
-223 8711 0
-225 8711 0
-248 8711 0
-251 8711 0
-270 8711 0
-284 8711 0
-289 8711 0
-322 8711 0
-324 8711 0
-332 8711 0
-338 8711 0
-341 8711 0
-348 8711 0
-1047 8713 0
-1048 8713 0
8713 -1065 0
-1081 8713 0
-1083 8713 0
-1094 8713 0
8713 -1108 0
8713 -1116 0
8713 -1130 0
-1138 8713 0
-1140 8713 0
-1164 8713 0
-1168 8713 0
-1170 8713 0
-1171 8713 0
-1178 8713 0
-1181 8713 0
-1187 8713 0
-1192 8713 0
-1194 8713 0
-1233 8715 0
-1285 8715 0
-1314 8715 0
-1321 8715 0
8717 -1353 0
-1364 8717 0
8717 -1366 0
-1369 8717 0
-1370 8717 0
8717 -1378 0
-1387 8717 0
-8717 1387 1353 1370 1378 1369 1364 1366 1361 0
-8709 -8711 0
-8709 -8717 0
-8713 -8711 0
-8715 -8711 0
-8711 -8717 0
-8717 -8713 0
-1 8719 0
-5 8719 0
-71 8719 0
-118 8719 0
-199 8721 0
-205 8721 0
-209 8721 0
-212 8721 0
-213 8721 0
-256 8721 0
-257 8721 0
-269 8721 0
8721 -271 0
-273 8721 0
-278 8721 0
-279 8721 0
-290 8721 0
-297 8721 0
-302 8721 0
-303 8721 0
-304 8721 0
-309 8721 0
-312 8721 0
-326 8721 0
-328 8721 0
-329 8721 0
-334 8721 0
-337 8721 0
-340 8721 0
-342 8721 0
-343 8721 0
199 218 312 271 273 342 279 203 220 212 266 316 290 257 302 278 297 245 343 276 269 213 306 256 244 230 239 258 250 319 304 283 222 229 253 286 288 233 301 206 295 226 303 205 224 309 326 314 227 -8721 281 329 293 311 337 328 211 334 209 340 246 0
8723 -1055 0
8723 -1059 0
8723 -1066 0
-1068 8723 0
8723 -1070 0
-1073 8723 0
8723 -1099 0
8723 -1102 0
8723 -1103 0
8723 -1112 0
8723 -1117 0
-1122 8723 0
8723 -1124 0
8723 -1125 0
8723 -1129 0
-1132 8723 0
-1136 8723 0
8723 -1139 0
-1141 8723 0
-1147 8723 0
8723 -1148 0
8723 -1150 0
8723 -1157 0
8723 -1158 0
8723 -1162 0
-1165 8723 0
8723 -1172 0
-1175 8723 0
-1183 8723 0
8723 -1188 0
8723 -1189 0
-8723 1149 1132 1051 1085 1119 1124 1070 1162 1045 1072 1057 1143 1079 1055 1059 1099 1160 1052 1186 1112 1125 1165 1136 1139 1150 1104 1157 1066 1134 1180 1158 1075 1148 1127 1172 1175 1091 1049 1115 1090 1141 1117 1152 1183 1068 1073 1122 1092 1147 1189 1058 1188 1155 1102 1129 1103 1076 1174 1064 1096 0
-1205 8725 0
-1209 8725 0
-1229 8725 0
-1338 8725 0
-1349 8727 0
8727 -1357 0
-1363 8727 0
-1372 8727 0
8727 -1386 0
-1388 8727 0
-1389 8727 0
-1390 8727 0
-8727 1372 1347 1389 1386 1390 1384 1363 1346 1385 1357 1376 1377 1374 1349 1388 1371 1345 1355 1375 1365 1354 0
-8719 -8723 -8721 0
-8725 -8719 -8721 0
-8719 -8727 -8721 0
-8725 -8719 -8723 0
-8719 -8723 -8727 0
-8723 -8727 -8721 0
-1 8729 0
-205 8731 0
-212 8731 0
-217 8731 0
-219 8731 0
-223 8731 0
-225 8731 0
-235 8731 0
-237 8731 0
-248 8731 0
-257 8731 0
-262 8731 0
-264 8731 0
-284 8731 0
-292 8731 0
-302 8731 0
-322 8731 0
-324 8731 0
-325 8731 0
-335 8731 0
-341 8731 0
-346 8731 0
-348 8731 0
8733 -1069 0
8733 -1083 0
8733 -1099 0
8733 -1103 0
8733 -1108 0
8733 -1112 0
8733 -1115 0
8733 -1117 0
8733 -1124 0
8733 -1130 0
-1136 8733 0
8733 -1139 0
8733 -1148 0
8733 -1157 0
8733 -1171 0
-1178 8733 0
8733 -1187 0
-1194 8733 0
-1219 8735 0
-1233 8735 0
-1244 8735 0
-1267 8735 0
-1300 8735 0
-1321 8735 0
-1337 8735 0
-1363 8737 0
-1364 8737 0
8737 -1370 0
8737 -1376 0
8737 -1385 0
8737 -1386 0
-1387 8737 0
-1388 8737 0
-1389 8737 0
-8729 -8733 -8731 0
-8735 -8729 -8731 0
-8729 -8737 -8731 0
-8735 -8729 -8733 0
-8729 -8737 -8733 0
-8737 -8733 -8731 0
-8747 1356 1350 1383 1380 1373 1384 1372 1355 1381 1382 1362 1348 1379 1346 1360 1349 1390 1391 1374 1392 1357 0
-3 8749 0
-4 8749 0
-18 8749 0
-34 8749 0
-36 8749 0
-40 8749 0
-42 8749 0
-43 8749 0
-57 8749 0
-63 8749 0
-67 8749 0
-69 8749 0
-72 8749 0
8749 -133 0
-135 8749 0
-149 8749 0
-201 8751 0
-202 8751 0
-210 8751 0
-214 8751 0
-232 8751 0
-234 8751 0
-238 8751 0
-240 8751 0
-241 8751 0
-243 8751 0
-247 8751 0
-249 8751 0
-259 8751 0
-261 8751 0
-267 8751 0
-270 8751 0
-289 8751 0
-320 8751 0
-344 8751 0
-347 8751 0
8753 -1047 0
-1060 8753 0
-1062 8753 0
8753 -1084 0
-1086 8753 0
-1087 8753 0
-1089 8753 0
-1093 8753 0
-1095 8753 0
-1101 8753 0
-1105 8753 0
-1107 8753 0
-1111 8753 0
-1113 8753 0
-1116 8753 0
-1135 8753 0
-1144 8753 0
-1146 8753 0
-1164 8753 0
-1166 8753 0
-1169 8753 0
-1179 8753 0
-1190 8753 0
-1193 8753 0
-1285 8755 0
-1314 8755 0
-1327 8755 0
-1343 8755 0
8757 -1351 0
8757 -1352 0
8757 -1353 0
-1359 8757 0
8757 -1366 0
8757 -1367 0
8757 -1368 0
-8757 1358 1353 1366 1367 1359 1368 1352 1351 0
-8749 -8753 0
-8749 -8757 0
-8753 -8751 0
-8755 -8751 0
-8751 -8757 0
-8753 -8757 0
8759 -152 0
8759 -155 0
8759 -159 0
8759 -162 0
8759 -165 0
8759 -180 0
-182 8759 0
8759 -186 0
8759 -193 0
8759 -195 0
-550 8761 0
-554 8761 0
-555 8761 0
-557 8761 0
-567 8761 0
-575 8761 0
-577 8761 0
-580 8761 0
-898 8763 0
-902 8763 0
-905 8763 0
-909 8763 0
-926 8763 0
-929 8763 0
-942 8763 0
-951 8763 0
-966 8763 0
-984 8763 0
-985 8763 0
-991 8763 0
-1014 8763 0
-1543 8765 0
-1547 8765 0
-1550 8765 0
-1553 8765 0
-1555 8765 0
-1567 8765 0
-1573 8765 0
-1581 8765 0
-1588 8765 0
-8765 1567 1543 1581 1555 1573 1547 1588 1553 1579 1550 0
-1742 8767 0
-1749 8767 0
-1751 8767 0
-1753 8767 0
-1762 8767 0
-1768 8767 0
-1770 8767 0
-1780 8767 0
-1786 8767 0
-8767 1762 1749 1768 1742 1786 1770 1753 1751 1745 1780 0
-8761 -8759 0
-8763 -8759 0
-8765 -8759 0
-8767 -8759 0
-8761 -8763 0
-8761 -8767 0
8769 -175 0
8769 -176 0
-8769 188 153 176 151 173 172 161 169 175 191 194 189 174 171 181 179 187 160 170 0
-1750 8777 0
-1764 8777 0
-1767 8777 0
-8777 1761 1748 1759 1772 1781 1773 1782 1763 1755 1784 1764 1750 1743 1747 1785 1767 1754 1741 1771 0
8779 -158 0
8779 -184 0
8779 -197 0
8781 -589 0
-903 8783 0
-927 8783 0
8785 -1561 0
8785 -1562 0
-1744 8787 0
8787 -1746 0
8787 -1775 0
-1777 8787 0
-1779 8787 0
8787 -1783 0
-8779 -8785 -8781 0
-8779 -8785 -8787 0
-8783 -8781 -8787 0
8789 -163 0
8789 -164 0
-8789 191 154 167 173 177 192 183 178 179 196 188 176 168 166 163 164 156 190 172 0
8797 -1744 0
-1747 8797 0
8797 -1779 0
-8797 1756 1746 1787 1755 1764 1775 1788 1748 1758 1744 1777 1776 1778 1747 1763 1769 1779 1752 1754 0
-157 8799 0
-158 8799 0
-159 8799 0
-184 8799 0
-185 8799 0
-186 8799 0
-197 8799 0
-8799 185 159 197 198 184 157 158 186 0
-8800 0
-557 8801 0
-562 8801 0
-592 8801 0
-593 8801 0
-594 8801 0
-8801 560 557 594 562 593 592 568 570 0
-8802 0
-898 8803 0
-913 8803 0
-915 8803 0
-919 8803 0
-933 8803 0
-947 8803 0
-951 8803 0
-980 8803 0
-988 8803 0
-1020 8803 0
-1021 8803 0
-1028 8803 0
-1034 8803 0
-1044 8803 0
-8803 951 988 1018 1014 919 985 898 921 947 958 897 915 944 1023 960 983 931 933 990 966 913 1044 1021 980 1020 1031 1028 1037 1042 1034 0
-8804 0
-1543 8805 0
-1544 8805 0
-1545 8805 0
-1589 8805 0
-8805 1576 1543 1544 1590 1588 1545 1577 1589 0
-8806 0
-1749 8807 0
-1757 8807 0
-1760 8807 0
-1762 8807 0
-1765 8807 0
-1766 8807 0
-1774 8807 0
-1783 8807 0
-8807 1774 1749 1757 1760 1783 1762 1765 1766 0
-8808 0
-8801 -8799 0
-8803 -8799 0
-8805 -8799 0
-8807 -8799 0
-8801 -8803 0
-8807 -8803 0
8803 8799 8801 8805 8807 8804 8802 8806 8800 8808 0
-152 8809 0
-8809 194 151 175 169 160 162 174 153 187 193 161 195 182 180 189 165 181 171 155 152 170 0
-8810 0
-8811 549 565 575 567 583 578 584 569 547 577 576 555 554 566 586 571 580 550 551 572 548 0
-8812 0
-8814 0
-1560 8815 0
-8815 1578 1552 1546 1547 1548 1568 1567 1570 1559 1553 1569 1550 1571 1572 1573 1560 1555 1581 1582 1584 1579 0
-8816 0
-1759 8817 0
-1761 8817 0
-1781 8817 0
-1782 8817 0
-8817 1767 1742 1759 1772 1781 1784 1770 1750 1780 1743 1786 1753 1768 1761 1785 1782 1773 1771 1741 1745 1751 0
-8818 0
-8809 -8815 -8817 0
8811 8817 8815 8809 8814 8810 8816 8812 8818 0
8819 -157 0
-583 8821 0
8825 -1571 0
8827 -1771 0
8827 -1772 0
-8821 -8819 -8825 0
-8819 -8825 -8827 0
8829 -152 0
-556 8831 0
8831 -589 0
-1554 8835 0
-1561 8835 0
8835 -1562 0
8835 -1565 0
8835 -1567 0
-1580 8835 0
8835 -1585 0
-8835 1580 1567 1565 1585 1587 1547 1553 1550 1574 1551 1581 1561 1575 1566 1573 1555 1562 1554 1579 1549 1563 0
-1775 8837 0
-1786 8837 0
-8835 -8831 -8837 0
-159 8839 0
-172 8839 0
-176 8839 0
-188 8839 0
-557 8841 0
-558 8841 0
-559 8841 0
-582 8841 0
-585 8841 0
-587 8841 0
-590 8841 0
-904 8843 0
-906 8843 0
-910 8843 0
-912 8843 0
-928 8843 0
-934 8843 0
-951 8843 0
-955 8843 0
-957 8843 0
-963 8843 0
-994 8843 0
-996 8843 0
-1029 8843 0
-1556 8845 0
8845 -1557 0
-1558 8845 0
-1564 8845 0
-1583 8845 0
-1586 8845 0
-8845 1558 1543 1557 1564 1583 1586 1588 1556 0
-1747 8847 0
-1748 8847 0
-1749 8847 0
-1754 8847 0
-1755 8847 0
-1763 8847 0
-8847 1762 1748 1755 1764 1749 1747 1763 1754 0
-8841 -8839 0
-8843 -8839 0
-8839 -8845 0
-8847 -8839 0
-8843 -8841 0
-8847 -8841 0
-8847 -8843 0
-8847 -8845 0
-14 8849 0
-25 8849 0
-36 8849 0
-47 8849 0
-61 8849 0
-89 8849 0
-143 8849 0
-1345 8853 0
-1352 8853 0
-1354 8853 0
-1363 8853 0
-1381 8853 0
-1546 8855 0
-1741 8857 0
-1746 8857 0
-1748 8857 0
8857 -1759 0
8857 -1783 0
-8849 -8853 0
-8849 -8855 0
-8853 -8857 0
-1 8859 0
-4 8859 0
-13 8859 0
-19 8859 0
-32 8859 0
-39 8859 0
-42 8859 0
-48 8859 0
-58 8859 0
-72 8859 0
-77 8859 0
-82 8859 0
-94 8859 0
-107 8859 0
-109 8859 0
-118 8859 0
-129 8859 0
-140 8859 0
-146 8859 0
-1266 8861 0
-1285 8861 0
8863 -1347 0
8863 -1364 0
8863 -1366 0
8863 -1379 0
8863 -1383 0
8863 -1391 0
-1543 8865 0
-1561 8865 0
8865 -1562 0
8865 -1563 0
8865 -1565 0
-1567 8865 0
-1582 8865 0
-1583 8865 0
-1589 8865 0
-1745 8867 0
-1760 8867 0
-1761 8867 0
-1762 8867 0
-1779 8867 0
8867 -1787 0
-8861 -8859 -8863 0
-8859 -8863 -8865 0
-8859 -8867 -8863 0
-8859 -8867 -8865 0
-8867 -8863 -8865 0
-6 8869 0
-10 8869 0
-20 8869 0
-34 8869 0
-63 8869 0
-64 8869 0
-67 8869 0
-70 8869 0
-80 8869 0
-100 8869 0
-114 8869 0
-133 8869 0
-137 8869 0
-139 8869 0
-1353 8873 0
8873 -1384 0
8873 -1385 0
8873 -1388 0
-8873 1389 1351 1372 1367 1376 1385 1386 1390 1384 1353 1374 1361 1377 1360 1362 1371 1375 1358 1388 0
8875 -1548 0
8875 -1549 0
8875 -1560 0
8875 -1568 0
8875 -1569 0
8875 -1571 0
8875 -1572 0
8875 -1587 0
8875 -1590 0
-1756 8877 0
-1758 8877 0
8877 -1771 0
8877 -1772 0
-8869 -8873 -8875 0
-8873 -8877 -8875 0
-3 8879 0
-6 8879 0
-11 8879 0
-17 8879 0
-18 8879 0
-24 8879 0
-37 8879 0
-41 8879 0
-43 8879 0
-44 8879 0
-50 8879 0
-70 8879 0
-73 8879 0
-81 8879 0
-103 8879 0
-106 8879 0
8879 -113 0
-120 8879 0
-126 8879 0
8879 -142 0
-145 8879 0
-148 8879 0
8883 -1358 0
-1374 8883 0
-1388 8883 0
-8883 1389 1348 1384 1357 1386 1365 1351 1385 1353 1376 1364 1377 1361 1349 1388 1374 1358 1360 1356 0
8885 -1584 0
8885 -1590 0
8887 -1772 0
-8879 -8883 -8885 0
-8879 -8883 -8887 0
-2 8889 0
-5 8889 0
-20 8889 0
-38 8889 0
-40 8889 0
-49 8889 0
-71 8889 0
-97 8889 0
-119 8889 0
-125 8889 0
-128 8889 0
-139 8889 0
-147 8889 0
-149 8889 0
-1362 8893 0
-1363 8893 0
-1367 8893 0
-1390 8893 0
-1546 8895 0
-1548 8895 0
8895 -1585 0
-1587 8895 0
-8895 1578 1546 1586 1585 1587 1548 1579 1547 0
-1746 8897 0
8897 -1759 0
-1763 8897 0
-1771 8897 0
-1786 8897 0
-8889 -8895 0
-8889 -8897 0
-8893 -8895 0
-8895 -8897 0
-1 8899 0
-12 8899 0
-14 8899 0
-19 8899 0
-36 8899 0
-47 8899 0
-61 8899 0
-102 8899 0
-118 8899 0
-140 8899 0
8903 -1378 0
8903 -1380 0
8903 -1383 0
8903 -1391 0
8903 -1392 0
8905 -1544 0
8905 -1562 0
8905 -1563 0
-1564 8905 0
8905 -1565 0
-1577 8905 0
-1741 8907 0
-1743 8907 0
-1762 8907 0
8907 -1777 0
-1779 8907 0
-8907 1783 1742 1787 1774 1765 1778 1750 1762 1776 1748 1775 1777 1741 1764 1743 1755 1779 1766 1788 1769 1751 0
-8899 -8903 -8905 0
-8899 -8903 -8907 0
-8899 -8905 -8907 0
-1 8909 0
-4 8909 0
-13 8909 0
-20 8909 0
-22 8909 0
-42 8909 0
-48 8909 0
-72 8909 0
-82 8909 0
-107 8909 0
-139 8909 0
-144 8909 0
-146 8909 0
-8909 94 67 74 149 85 133 4 1 27 8 26 32 38 48 40 51 13 55 58 49 54 42 72 19 76 77 79 22 69 28 86 90 91 20 82 97 105 84 109 110 95 115 107 118 122 112 117 128 123 125 129 130 65 139 140 144 135 138 146 147 0
-8910 0
-8912 0
-1346 8913 0
-1368 8913 0
-1380 8913 0
-1383 8913 0
-1390 8913 0
-8913 1369 1392 1347 1367 1368 1390 1383 1378 1379 1346 1371 1355 1391 1375 1366 1362 1372 1380 1382 0
-8914 0
-1547 8915 0
-1563 8915 0
-1565 8915 0
-1566 8915 0
-1573 8915 0
-1582 8915 0
-1586 8915 0
-8915 1578 1565 1545 1547 1562 1566 1575 1573 1574 1579 1587 1583 1563 1548 1582 1553 1543 1586 1576 0
-8916 0
-1743 8917 0
-1758 8917 0
-1764 8917 0
-1786 8917 0
-8917 1787 1743 1758 1771 1778 1788 1763 1751 1762 1764 1786 1768 1776 1742 1774 1775 1779 1765 1767 0
-8918 0
-8909 -8915 -8913 0
-8909 -8917 -8915 0
-8913 -8917 -8915 0
8913 8909 8915 8917 8914 8912 8916 8910 8918 0
-53 8919 0
-8919 12 106 45 53 18 142 25 83 73 34 148 16 21 30 143 31 113 23 29 43 64 14 7 59 36 63 104 37 47 75 78 3 24 70 80 87 57 93 10 141 99 81 88 89 100 108 98 96 6 61 114 102 116 111 131 124 132 127 120 137 0
-8920 0
-8922 0
-1353 8923 0
-1381 8923 0
-1388 8923 0
-8923 1381 1353 1359 1384 1376 1385 1386 1370 1377 1361 1358 1351 1354 1352 1345 1389 1373 1374 1387 1360 1388 0
-8924 0
-1549 8925 0
-1551 8925 0
-1569 8925 0
-1570 8925 0
-1572 8925 0
-1590 8925 0
-8925 1564 1550 1557 1556 1551 1552 1544 1568 1560 1558 1549 1569 1570 1571 1572 1581 1580 1577 1588 1590 1559 0
-8926 0
-1741 8927 0
-1748 8927 0
-1749 8927 0
-1756 8927 0
-1757 8927 0
-1772 8927 0
-1773 8927 0
-1777 8927 0
-1783 8927 0
-8927 1772 1748 1777 1781 1783 1750 1756 1773 1784 1780 1770 1749 1782 1747 1785 1741 1757 1754 1755 1766 1769 0
-8928 0
-8919 -8923 -8927 0
-8923 -8925 -8927 0
8923 8919 8925 8927 8924 8922 8926 8920 8928 0
-2 8929 0
-5 8929 0
-9 8929 0
-11 8929 0
-15 8929 0
-17 8929 0
-33 8929 0
-35 8929 0
-39 8929 0
-41 8929 0
-44 8929 0
-46 8929 0
-50 8929 0
-52 8929 0
-56 8929 0
-60 8929 0
-62 8929 0
-66 8929 0
-68 8929 0
-71 8929 0
-92 8929 0
-101 8929 0
-103 8929 0
-119 8929 0
-121 8929 0
-126 8929 0
-134 8929 0
-136 8929 0
-145 8929 0
-150 8929 0
-8929 92 5 15 33 145 101 39 150 35 46 11 126 60 41 17 66 136 44 2 9 50 56 68 52 71 103 62 121 119 134 0
-1349 8933 0
-1350 8933 0
-1363 8933 0
-1364 8933 0
-1365 8933 0
-8933 1356 1350 1357 1363 1365 1364 1348 1349 0
8935 -1546 0
-1555 8935 0
-1561 8935 0
-1584 8935 0
8935 -1585 0
-1589 8935 0
-1744 8937 0
-1745 8937 0
8937 -1746 0
8937 -1759 0
-1760 8937 0
-1761 8937 0
-8929 -8935 0
-8929 -8937 0
-8933 -8935 0
-8935 -8937 0
-151 8939 0
-156 8939 0
-158 8939 0
-160 8939 0
-164 8939 0
-169 8939 0
-177 8939 0
-185 8939 0
-190 8939 0
-8939 185 156 160 169 177 164 190 158 151 0
-8940 0
-200 8941 0
-203 8941 0
-205 8941 0
-210 8941 0
-212 8941 0
-214 8941 0
-219 8941 0
-221 8941 0
-223 8941 0
-228 8941 0
-229 8941 0
-234 8941 0
-243 8941 0
-245 8941 0
-257 8941 0
-259 8941 0
-269 8941 0
-285 8941 0
-287 8941 0
-290 8941 0
-294 8941 0
-296 8941 0
-302 8941 0
-317 8941 0
-325 8941 0
-330 8941 0
-339 8941 0
-341 8941 0
-8941 269 245 330 228 210 339 212 221 287 223 254 219 243 290 229 341 259 214 285 302 294 296 300 203 317 325 200 257 205 234 0
-8942 0
-548 8943 0
-551 8943 0
-552 8943 0
-558 8943 0
-572 8943 0
-576 8943 0
-581 8943 0
-587 8943 0
-591 8943 0
-8943 558 576 591 587 552 551 548 572 581 0
-8944 0
-906 8945 0
-908 8945 0
-910 8945 0
-915 8945 0
-917 8945 0
-919 8945 0
-924 8945 0
-941 8945 0
-950 8945 0
-965 8945 0
-981 8945 0
-983 8945 0
-986 8945 0
-990 8945 0
-992 8945 0
-998 8945 0
-1013 8945 0
-1021 8945 0
-1037 8945 0
-8945 965 896 925 939 981 910 955 919 915 1021 924 930 1026 941 901 1013 992 908 953 983 986 990 906 996 998 950 917 899 1035 1037 0
-8946 0
-1046 8947 0
-1051 8947 0
-1056 8947 0
-1060 8947 0
-1065 8947 0
-1069 8947 0
-1100 8947 0
-1103 8947 0
-1105 8947 0
-1115 8947 0
-1131 8947 0
-1136 8947 0
-1142 8947 0
-1148 8947 0
-1163 8947 0
-1171 8947 0
-1187 8947 0
-8947 1187 1067 1049 1046 1091 1065 1074 1089 1148 1100 1069 1136 1105 1058 1056 1051 1142 1131 1133 1163 1075 1171 1060 1146 1103 1080 1140 1185 1115 1176 0
-8948 0
-8941 -8939 0
-8943 -8939 0
-8945 -8939 0
-8947 -8939 0
-8941 -8943 0
-8945 -8941 0
-8941 -8947 0
-8945 -8943 0
-8947 -8943 0
-8945 -8947 0
8941 8943 8939 8945 8947 8944 8942 8946 8940 8948 0
8951 -202 0
8951 -305 0
8953 -575 0
-895 8955 0
-945 8955 0
8955 -949 0
-1029 8955 0
-1045 8957 0
8957 -1099 0
8957 -1120 0
8957 -1121 0
8957 -1123 0
8957 -1126 0
-1153 8957 0
8957 -1154 0
-1156 8957 0
8957 -1159 0
-8951 -8955 -8953 0
-8951 -8957 -8953 0
-161 8959 0
-163 8959 0
-8959 186 154 159 173 194 195 187 178 168 179 175 188 197 161 176 162 180 152 171 181 165 167 174 198 196 189 192 157 153 170 191 155 182 166 193 184 163 183 172 0
-8960 0
-8962 0
-8963 0
-8964 0
-951 8965 0
-8965 1024 900 920 979 977 931 904 951 918 923 928 912 932 934 937 943 947 948 1000 916 1014 989 961 914 982 969 972 1038 975 922 958 964 984 1008 993 897 991 957 974 1002 1005 1007 1017 1010 967 994 1018 1019 987 959 1022 1027 1031 1032 1033 1025 1036 1041 1042 1043 0
-8966 0
-1047 8967 0
-1114 8967 0
-8967 1150 1101 1062 1119 1093 1109 1125 1164 1066 1124 1064 1108 1127 1137 1068 1073 1114 1098 1072 1158 1144 1097 1082 1152 1177 1081 1087 1107 1111 1117 1143 1122 1084 1054 1132 1141 1182 1188 1050 1169 1155 1172 1139 1157 1047 1134 1167 1168 1181 1174 1175 1186 1078 1129 1183 1160 1070 1191 1192 1193 0
-8968 0
-8965 -8967 -8959 0
8959 8965 8967 8963 8964 8960 8966 8962 8968 0
-8979 0
-8980 0
-200 8981 0
-203 8981 0
-218 8981 0
-220 8981 0
-226 8981 0
-236 8981 0
-238 8981 0
-247 8981 0
-252 8981 0
-254 8981 0
-263 8981 0
-265 8981 0
-269 8981 0
-283 8981 0
-288 8981 0
-290 8981 0
-293 8981 0
-295 8981 0
-317 8981 0
-321 8981 0
-323 8981 0
-326 8981 0
-328 8981 0
-331 8981 0
-336 8981 0
-337 8981 0
-342 8981 0
-345 8981 0
-347 8981 0
-8981 238 345 265 218 252 290 293 317 283 269 263 295 220 347 328 254 337 226 224 288 326 323 331 203 247 336 236 321 200 342 0
-8982 0
-547 8983 0
-548 8983 0
-549 8983 0
-550 8983 0
-551 8983 0
-552 8983 0
-558 8983 0
-561 8983 0
-563 8983 0
-572 8983 0
-573 8983 0
-574 8983 0
-575 8983 0
-576 8983 0
-577 8983 0
-578 8983 0
-581 8983 0
-585 8983 0
-586 8983 0
-587 8983 0
-588 8983 0
-589 8983 0
-590 8983 0
-591 8983 0
-8983 552 550 558 574 591 589 547 551 576 577 563 587 572 548 588 586 575 581 549 578 561 585 573 590 0
-8984 0
-896 8985 0
-899 8985 0
-914 8985 0
-922 8985 0
-932 8985 0
-943 8985 0
-948 8985 0
-950 8985 0
-959 8985 0
-961 8985 0
-965 8985 0
-979 8985 0
-986 8985 0
-1013 8985 0
-1019 8985 0
-1024 8985 0
-1027 8985 0
-1033 8985 0
-1041 8985 0
-8985 932 950 965 984 989 986 1013 934 914 922 948 896 961 979 916 1024 1017 959 991 920 943 1019 899 1022 1027 1032 1033 1038 1041 1043 0
-8986 0
-1046 8987 0
-1049 8987 0
-1070 8987 0
-1084 8987 0
-1100 8987 0
-1109 8987 0
-1115 8987 0
-1136 8987 0
-1139 8987 0
-1167 8987 0
-1172 8987 0
-1188 8987 0
-1191 8987 0
-1193 8987 0
-8987 1188 1072 1193 1049 1082 1191 1084 1046 1163 1141 1066 1098 1093 1136 1139 1169 1167 1109 1172 1070 1177 1129 1064 1174 1115 1111 1134 1182 1183 1100 0
-8988 0
-8981 -8983 0
-8985 -8981 0
-8987 -8981 0
-8985 -8983 0
-8987 -8983 0
-8985 -8987 0
8983 8981 8985 8987 8980 8984 8979 8986 8982 8988 0
8989 -152 0
8989 -167 0
8989 -178 0
-202 8991 0
-978 8995 0
8995 -980 0
8995 -988 0
-1003 8995 0
-1023 8995 0
-1034 8995 0
8997 -1102 0
8997 -1187 0
-8991 -8995 -8989 0
-8995 -8997 -8989 0
8999 -159 0
8999 -161 0
8999 -167 0
8999 -178 0
8999 -187 0
8999 -192 0
-202 9001 0
-249 9001 0
-277 9001 0
-305 9001 0
9003 -575 0
9003 -589 0
-968 9005 0
-976 9005 0
-1009 9005 0
-9001 -9003 -8999 0
-9005 -9003 -8999 0
9011 -243 0
-548 9013 0
-583 9013 0
9015 -951 0
-9015 900 992 925 923 967 915 1018 912 919 906 917 951 908 924 987 1014 930 931 937 939 918 947 998 958 1036 910 897 977 901 928 972 941 975 982 904 993 983 969 990 955 953 964 996 1008 957 1002 1005 1007 981 1010 1000 994 1021 974 1026 1031 1035 1025 1037 1042 0
9017 -1124 0
9017 -1137 0
9017 -1158 0
-9011 -9013 -9015 0
-9013 -9015 -9017 0
9019 -151 0
-154 9019 0
-155 9019 0
-156 9019 0
9019 -158 0
-160 9019 0
-163 9019 0
-164 9019 0
-165 9019 0
-166 9019 0
-169 9019 0
-170 9019 0
-171 9019 0
-175 9019 0
-177 9019 0
-180 9019 0
-181 9019 0
9019 -185 0
-189 9019 0
-190 9019 0
-193 9019 0
-194 9019 0
-197 9019 0
-198 9019 0
-9019 185 155 165 177 163 169 160 166 151 158 181 164 197 190 180 194 198 156 175 193 154 189 171 170 0
-207 9021 0
-209 9021 0
-213 9021 0
-215 9021 0
-242 9021 0
-244 9021 0
-248 9021 0
-250 9021 0
-269 9021 0
-290 9021 0
-299 9021 0
-301 9021 0
-319 9021 0
-324 9021 0
-332 9021 0
-334 9021 0
-343 9021 0
-348 9021 0
-896 9025 0
-903 9025 0
-905 9025 0
-911 9025 0
-927 9025 0
-938 9025 0
-940 9025 0
-950 9025 0
-954 9025 0
-956 9025 0
-962 9025 0
-965 9025 0
-995 9025 0
-997 9025 0
-1013 9025 0
-1015 9025 0
-1030 9025 0
-1039 9025 0
-1046 9027 0
-1049 9027 0
-1053 9027 0
-1055 9027 0
9027 -1059 0
-1077 9027 0
-1079 9027 0
-1083 9027 0
-1088 9027 0
-1090 9027 0
-1094 9027 0
-1100 9027 0
9027 -1104 0
-1106 9027 0
-1110 9027 0
-1112 9027 0
-1115 9027 0
-1136 9027 0
-1145 9027 0
-1163 9027 0
-1178 9027 0
-1180 9027 0
-1189 9027 0
-1194 9027 0
-9021 -9019 0
-9025 -9019 0
-9027 -9019 0
-9021 -9025 0
-9021 -9027 0
-9025 -9027 0
-349 9029 0
-353 9029 0
-356 9029 0
-373 9029 0
-379 9029 0
-394 9029 0
-9029 361 353 379 359 394 385 373 387 349 356 0
-597 9031 0
-598 9031 0
-602 9031 0
-605 9031 0
-607 9031 0
-616 9031 0
-618 9031 0
-620 9031 0
-623 9031 0
-626 9031 0
-629 9031 0
-640 9031 0
-642 9031 0
-651 9031 0
-652 9031 0
-654 9031 0
-666 9031 0
-682 9031 0
-684 9031 0
-685 9031 0
-691 9031 0
-693 9031 0
-697 9031 0
-699 9031 0
-714 9031 0
-722 9031 0
-725 9031 0
-736 9031 0
-738 9031 0
-9031 597 651 699 736 725 598 666 607 682 691 738 642 685 697 623 605 626 616 640 714 684 618 602 629 654 620 652 693 722 609 0
-1395 9033 0
-1396 9033 0
-1400 9033 0
-1403 9033 0
-1405 9033 0
-1407 9033 0
-1414 9033 0
-1416 9033 0
-1418 9033 0
-1421 9033 0
-1424 9033 0
-1427 9033 0
-1438 9033 0
-1440 9033 0
9033 -1450 0
-1452 9033 0
-1464 9033 0
-1480 9033 0
-1482 9033 0
-1483 9033 0
-1489 9033 0
-1491 9033 0
-1495 9033 0
-1497 9033 0
-1512 9033 0
-1520 9033 0
-1523 9033 0
-1534 9033 0
-9033 1396 1489 1438 1450 1405 1449 1480 1536 1512 1534 1523 1497 1483 1424 1395 1418 1452 1421 1495 1427 1520 1482 1403 1407 1414 1416 1464 1440 1491 1400 0
-1593 9035 0
-1594 9035 0
-1598 9035 0
-1601 9035 0
-1603 9035 0
-1605 9035 0
-1612 9035 0
-1614 9035 0
-1616 9035 0
-1622 9035 0
-1625 9035 0
-1638 9035 0
-1647 9035 0
-1648 9035 0
-1662 9035 0
-1681 9035 0
-1687 9035 0
-1689 9035 0
-1693 9035 0
-1695 9035 0
-1710 9035 0
-1718 9035 0
-1732 9035 0
-1734 9035 0
-9035 1647 1593 1594 1680 1662 1695 1619 1614 1603 1693 1648 1718 1687 1732 1612 1636 1638 1734 1650 1622 1601 1710 1605 1598 1681 1625 1689 1678 1616 1721 0
-1796 9037 0
-1799 9037 0
-1810 9037 0
-1812 9037 0
-1814 9037 0
-1817 9037 0
-1834 9037 0
-1836 9037 0
-1845 9037 0
-1876 9037 0
-1878 9037 0
9037 -1879 0
-9037 1879 1836 1860 1887 1810 1930 1845 1792 1908 1846 1799 1919 1932 1817 1891 1823 1878 1848 1876 1885 1791 1814 1834 1803 1796 1893 1801 1820 1916 1812 0
-9029 -9031 0
-9029 -9035 0
-9029 -9037 0
-9033 -9031 0
-9031 -9035 0
-9031 -9037 0
-9033 -9035 0
-9033 -9037 0
-9035 -9037 0
-352 9039 0
-354 9039 0
-374 9039 0
-375 9039 0
-376 9039 0
-377 9039 0
-378 9039 0
-9039 388 358 352 378 362 377 392 370 354 390 365 389 376 366 375 364 374 363 384 0
-9040 0
-604 9041 0
-612 9041 0
-628 9041 0
-634 9041 0
-636 9041 0
-637 9041 0
-643 9041 0
-645 9041 0
-667 9041 0
-669 9041 0
-672 9041 0
-674 9041 0
-700 9041 0
-705 9041 0
-708 9041 0
-710 9041 0
-9041 599 601 729 712 667 630 672 636 710 677 715 707 653 674 637 614 634 612 661 628 662 657 608 639 604 679 686 606 700 625 641 610 646 669 622 635 595 696 694 655 698 689 643 675 708 663 645 743 716 719 649 724 727 705 730 733 739 740 665 702 0
-9042 0
-1393 9043 0
-1397 9043 0
-1399 9043 0
-1402 9043 0
-1404 9043 0
-1408 9043 0
-1410 9043 0
-1412 9043 0
-1423 9043 0
-1426 9043 0
-1428 9043 0
-1435 9043 0
-1437 9043 0
-1443 9043 0
-1444 9043 0
-1447 9043 0
-1455 9043 0
-1465 9043 0
-1467 9043 0
-1473 9043 0
-1484 9043 0
-1487 9043 0
-1503 9043 0
-1505 9043 0
-1506 9043 0
-9043 1447 1506 1463 1473 1484 1470 1505 1517 1393 1527 1435 1538 1508 1437 1455 1510 1537 1492 1465 1514 1451 1423 1420 1467 1500 1402 1513 1443 1531 1404 1460 1541 1494 1408 1434 1472 1412 1503 1428 1496 1453 1525 1439 1410 1528 1441 1459 1522 1477 1426 1432 1399 1461 1433 1475 1444 1498 1406 1397 1487 0
-9044 0
-1595 9045 0
-1639 9045 0
-1682 9045 0
-1690 9045 0
-1692 9045 0
-1696 9045 0
-1708 9045 0
-1712 9045 0
-1723 9045 0
-1735 9045 0
-9045 1712 1591 1668 1670 1651 1696 1723 1637 1658 1739 1626 1663 1673 1645 1657 1690 1633 1649 1639 1685 1624 1610 1653 1729 1715 1641 1635 1703 1682 1692 1694 1632 1630 1608 1671 1631 1711 1720 1597 1704 1595 1602 1726 1698 1600 1675 1642 1706 1606 1708 1621 1665 1661 1618 1659 1725 1604 1735 1736 1701 0
-9046 0
-1843 9047 0
-1880 9047 0
-9047 1793 1802 1868 1873 1883 1863 1937 1880 1808 1831 1861 1851 1789 1800 1869 1830 1798 1837 1927 1921 1839 1816 1847 1849 1835 1913 1856 1857 1859 1828 1819 1866 1843 1933 1871 1829 1795 1904 1894 1890 1892 1924 1896 1910 1822 1855 1899 1804 1806 1888 1833 1918 1909 1923 1840 1901 1906 1902 1934 1824 0
-9048 0
-9039 -9045 -9041 0
-9041 -9047 -9039 0
-9039 -9045 -9047 0
-9045 -9041 -9047 0
9041 9039 9043 9045 9040 9044 9042 9046 9048 0
9041 9047 9043 9039 9040 9044 9046 9042 9048 0
9047 9039 9041 9045 9044 9040 9046 9042 9048 0
-350 9049 0
-351 9049 0
-355 9049 0
-357 9049 0
-367 9049 0
-368 9049 0
-369 9049 0
9049 -380 0
9049 -381 0
9049 -393 0
-395 9049 0
-396 9049 0
-615 9051 0
-619 9051 0
-638 9051 0
9051 -644 0
-650 9051 0
-668 9051 0
9051 -670 0
9051 -671 0
-673 9051 0
-678 9051 0
-680 9051 0
-683 9051 0
-687 9051 0
-690 9051 0
-701 9051 0
-703 9051 0
-709 9051 0
-711 9051 0
-713 9051 0
9051 -721 0
9051 -726 0
-728 9051 0
-735 9051 0
-737 9051 0
-744 9051 0
-1394 9053 0
-1398 9053 0
-1401 9053 0
-1409 9053 0
-1411 9053 0
-1417 9053 0
-1419 9053 0
-1425 9053 0
-1429 9053 0
-1430 9053 0
-1436 9053 0
-1442 9053 0
-1445 9053 0
-1448 9053 0
-1454 9053 0
-1456 9053 0
-1457 9053 0
-1458 9053 0
-1462 9053 0
-1466 9053 0
-1468 9053 0
-1469 9053 0
-1471 9053 0
-1474 9053 0
-1479 9053 0
-1481 9053 0
-1486 9053 0
-1499 9053 0
-1501 9053 0
-1502 9053 0
-1504 9053 0
-1507 9053 0
-1511 9053 0
-1519 9053 0
-1526 9053 0
-1532 9053 0
-1533 9053 0
-9053 1398 1485 1468 1504 1394 1456 1409 1462 1529 1474 1471 1507 1521 1540 1516 1478 1533 1502 1481 1415 1442 1524 1542 1401 1411 1532 1454 1476 1535 1446 1519 1458 1431 1499 1457 1422 1501 1419 1493 1486 1425 1436 1526 1479 1448 1509 1466 1530 1515 1445 1490 1430 1511 1488 1469 1417 1413 1429 1539 1518 0
-1596 9055 0
-1615 9055 0
-1617 9055 0
-1628 9055 0
-1643 9055 0
-1646 9055 0
-1652 9055 0
-1654 9055 0
-1656 9055 0
-1660 9055 0
-1664 9055 0
-1667 9055 0
-1676 9055 0
-1683 9055 0
-1684 9055 0
-1686 9055 0
-1688 9055 0
-1697 9055 0
-1702 9055 0
9055 -1705 0
-1709 9055 0
-1717 9055 0
-1719 9055 0
-1724 9055 0
-1727 9055 0
-1737 9055 0
-9055 1716 1596 1666 1699 1740 1697 1677 1705 1664 1655 1684 1656 1717 1623 1628 1688 1643 1722 1654 1667 1627 1686 1714 1727 1652 1611 1724 1683 1700 1738 1634 1592 1613 1607 1691 1679 1646 1676 1599 1609 1713 1669 1629 1707 1640 1709 1674 1672 1615 1644 1702 1620 1660 1617 1719 1728 1731 1730 1733 1737 0
-1826 9057 0
-1842 9057 0
-1844 9057 0
-1852 9057 0
-1854 9057 0
-1874 9057 0
-1877 9057 0
9057 -1881 0
-1912 9057 0
9057 -1914 0
-1935 9057 0
-9049 -9051 -9055 0
-9049 -9051 -9057 0
-9053 -9049 -9055 0
-9049 -9055 -9057 0
-9053 -9051 -9057 0
-9051 -9055 -9057 0
-9053 -9055 -9057 0
9059 -364 0
9059 -389 0
9059 -393 0
-606 9061 0
-610 9061 0
-630 9061 0
-634 9061 0
-639 9061 0
-643 9061 0
-668 9061 0
9061 -670 0
9061 -671 0
-673 9061 0
-676 9061 0
-678 9061 0
-701 9061 0
-703 9061 0
9061 -704 0
-706 9061 0
-709 9061 0
-711 9061 0
-719 9061 0
9061 -726 0
-743 9061 0
-1404 9063 0
-1415 9063 0
-1428 9063 0
-1441 9063 0
-1443 9063 0
-1471 9063 0
-1525 9063 0
-9063 1437 1538 1398 1426 1539 1468 1517 1524 1462 1502 1443 1507 1490 1533 1434 1466 1428 1474 1479 1409 1471 1504 1541 1515 1501 1401 1525 1415 1446 1476 1527 1485 1430 1404 1530 1410 1493 1435 1455 1461 1499 1448 1408 1514 1492 1511 1454 1425 1422 1436 1402 1494 1432 1509 1469 1459 1441 1394 1453 1457 0
-1592 9065 0
-1606 9065 0
-1607 9065 0
-1608 9065 0
-1620 9065 0
-1628 9065 0
-1639 9065 0
-1641 9065 0
-1646 9065 0
-1652 9065 0
-1653 9065 0
-1659 9065 0
-1666 9065 0
-1669 9065 0
-1672 9065 0
-1683 9065 0
-1688 9065 0
-1690 9065 0
-1691 9065 0
-1692 9065 0
-1697 9065 0
-1699 9065 0
-1700 9065 0
-1702 9065 0
9065 -1705 0
-1715 9065 0
-9065 1688 1657 1660 1697 1699 1623 1667 1674 1739 1644 1677 1683 1608 1600 1628 1690 1651 1641 1639 1652 1624 1712 1705 1620 1715 1725 1653 1672 1592 1633 1692 1723 1691 1634 1722 1606 1731 1702 1655 1669 1630 1635 1599 1666 1700 1626 1607 1709 1736 1613 1602 1596 1646 1659 1728 1664 1707 1737 1632 1713 0
-1844 9067 0
9067 -1881 0
-1910 9067 0
-1913 9067 0
-9059 -9061 -9065 0
-9059 -9061 -9067 0
-9059 -9065 -9067 0
-9061 -9065 -9067 0
-9063 -9065 -9067 0
-350 9069 0
-351 9069 0
-394 9069 0
-395 9069 0
-396 9069 0
-9069 382 350 349 396 394 383 351 395 0
-9070 0
-597 9071 0
-598 9071 0
-613 9071 0
-615 9071 0
-619 9071 0
-621 9071 0
-631 9071 0
-633 9071 0
-644 9071 0
-647 9071 0
-658 9071 0
-660 9071 0
-680 9071 0
-683 9071 0
-688 9071 0
-690 9071 0
-718 9071 0
-720 9071 0
-721 9071 0
-723 9071 0
-728 9071 0
-731 9071 0
-734 9071 0
-737 9071 0
-742 9071 0
-744 9071 0
-9071 613 597 734 737 615 683 690 728 721 744 742 731 619 651 647 631 666 633 658 688 718 621 644 685 598 714 680 660 720 723 0
-9072 0
-1396 9073 0
-1411 9073 0
-1413 9073 0
-1417 9073 0
-1419 9073 0
-1429 9073 0
-1431 9073 0
-1442 9073 0
-1445 9073 0
-1449 9073 0
-1456 9073 0
-1458 9073 0
-1464 9073 0
-1478 9073 0
-1481 9073 0
-1483 9073 0
-1486 9073 0
-1488 9073 0
-1516 9073 0
-1518 9073 0
-1519 9073 0
-1521 9073 0
-1526 9073 0
-1529 9073 0
-1532 9073 0
-1535 9073 0
-1540 9073 0
-1542 9073 0
-9073 1395 1512 1521 1431 1449 1529 1542 1516 1483 1518 1411 1445 1535 1419 1478 1519 1532 1456 1464 1481 1526 1458 1429 1486 1413 1442 1488 1417 1540 1396 0
-9074 0
-1593 9075 0
-1594 9075 0
-1609 9075 0
-1611 9075 0
-1615 9075 0
-1627 9075 0
-1629 9075 0
-1640 9075 0
-1654 9075 0
-1656 9075 0
-1662 9075 0
-1676 9075 0
-1679 9075 0
-1681 9075 0
-1684 9075 0
-1686 9075 0
-1710 9075 0
-1717 9075 0
-1724 9075 0
-1727 9075 0
-1730 9075 0
-1733 9075 0
-1738 9075 0
-9075 1629 1617 1714 1710 1716 1740 1733 1615 1594 1609 1656 1681 1676 1717 1654 1662 1684 1686 1724 1640 1730 1647 1627 1643 1679 1719 1727 1611 1738 1593 0
-9076 0
-1807 9077 0
-1809 9077 0
-1813 9077 0
-1815 9077 0
-1838 9077 0
-1841 9077 0
-1845 9077 0
-1852 9077 0
-1854 9077 0
-1874 9077 0
-1877 9077 0
-1879 9077 0
-1908 9077 0
-1912 9077 0
-1914 9077 0
-1922 9077 0
-1925 9077 0
-1936 9077 0
-1938 9077 0
-9077 1879 1874 1827 1884 1845 1908 1914 1877 1860 1854 1928 1938 1841 1925 1931 1915 1815 1922 1917 1813 1936 1852 1882 1807 1912 1791 1838 1809 1792 1825 0
-9078 0
-9069 -9071 0
-9069 -9075 0
-9069 -9077 0
-9073 -9071 0
-9075 -9071 0
-9071 -9077 0
-9073 -9075 0
-9073 -9077 0
-9075 -9077 0
9071 9073 9069 9075 9077 9074 9072 9076 9070 9078 0
-356 9079 0
-376 9079 0
-377 9079 0
-378 9079 0
9079 -379 0
-629 9081 0
-674 9081 0
-700 9081 0
9081 -725 0
9081 -736 0
-1393 9083 0
-1447 9083 0
-1467 9083 0
-1477 9083 0
-1491 9083 0
-9083 1450 1510 1506 1470 1447 1475 1498 1537 1433 1420 1480 1505 1393 1403 1399 1522 1451 1536 1534 1405 1503 1414 1397 1523 1424 1438 1484 1495 1472 1412 1427 1489 1520 1497 1465 1500 1406 1423 1487 1477 1421 1496 1528 1508 1467 1460 1400 1491 1416 1473 1407 1444 1513 1452 1439 1463 1418 1531 1482 1440 0
-1616 9085 0
9085 -1663 0
-1670 9085 0
-1671 9085 0
9085 -1696 0
9085 -1703 0
9085 -1708 0
9085 -1718 0
-9085 1682 1591 1680 1668 1696 1703 1670 1663 1704 1685 1695 1649 1642 1689 1648 1718 1658 1622 1735 1614 1638 1678 1732 1616 1645 1661 1619 1650 1726 1675 1694 1698 1637 1595 1605 1671 1636 1673 1601 1734 1618 1708 1665 1687 1612 1621 1610 1631 1625 1701 1603 1706 1711 1604 1598 1597 1721 1693 1729 1720 0
9087 -1843 0
9087 -1880 0
-9079 -9081 -9087 0
-9079 -9085 -9087 0
-9081 -9085 -9087 0
-376 9089 0
-377 9089 0
-378 9089 0
-9089 358 354 376 351 350 390 395 396 388 366 384 365 383 382 352 378 377 374 375 0
-613 9091 0
-615 9091 0
-619 9091 0
-621 9091 0
-665 9091 0
9091 -667 0
-669 9091 0
9091 -672 0
-674 9091 0
9091 -686 0
-700 9091 0
-705 9091 0
-708 9091 0
9091 -710 0
9091 -731 0
-742 9091 0
-9091 705 644 667 715 724 737 734 744 707 723 595 641 720 621 674 647 613 614 710 677 731 615 679 633 608 680 669 653 718 698 686 689 646 599 700 675 662 635 712 631 619 665 649 688 622 672 625 690 708 658 660 730 601 733 683 728 739 742 721 702 0
-1393 9093 0
-1397 9093 0
-1465 9093 0
-1473 9093 0
-1475 9093 0
-1484 9093 0
-1498 9093 0
-1505 9093 0
-9093 1393 1463 1470 1475 1519 1397 1537 1506 1406 1481 1433 1542 1444 1419 1429 1505 1500 1478 1412 1399 1423 1456 1467 1535 1420 1472 1477 1460 1513 1486 1496 1445 1431 1439 1498 1521 1503 1465 1510 1508 1516 1522 1528 1529 1473 1484 1540 1413 1447 1411 1451 1526 1442 1488 1417 1532 1458 1487 1531 1518 0
9095 -1591 0
9095 -1611 0
-1615 9095 0
-1617 9095 0
9095 -1640 0
9095 -1645 0
9095 -1654 0
9095 -1656 0
9095 -1670 0
9095 -1671 0
9095 -1676 0
9095 -1682 0
9095 -1686 0
9095 -1696 0
9095 -1716 0
-1717 9095 0
-1719 9095 0
9095 -1724 0
-9095 1704 1645 1654 1668 1661 1656 1663 1685 1591 1706 1658 1696 1703 1640 1649 1631 1642 1676 1637 1610 1670 1719 1724 1604 1643 1595 1609 1686 1671 1684 1716 1711 1729 1694 1727 1611 1740 1730 1701 1733 1735 1629 1621 1618 1714 1738 1675 1708 1627 1617 1673 1615 1726 1679 1665 1597 1717 1720 1698 1682 0
9097 -1843 0
9097 -1880 0
-9089 -9091 -9097 0
-9093 -9089 -9097 0
-9089 -9095 -9097 0
-356 9099 0
-368 9099 0
-379 9099 0
-393 9099 0
-9099 361 353 367 355 393 356 372 369 368 391 379 357 373 371 380 381 385 386 387 360 359 0
-9100 0
-629 9101 0
-640 9101 0
-654 9101 0
-668 9101 0
-670 9101 0
-671 9101 0
-673 9101 0
-676 9101 0
-678 9101 0
-697 9101 0
-701 9101 0
-703 9101 0
-706 9101 0
-709 9101 0
-711 9101 0
-722 9101 0
-726 9101 0
-738 9101 0
-9101 709 725 664 671 673 676 736 704 735 642 706 668 648 713 741 602 701 681 626 717 638 616 607 603 711 611 623 596 600 682 654 684 624 659 692 695 652 605 618 629 640 722 627 738 609 699 620 670 691 617 693 687 678 632 703 650 726 656 697 732 0
-9102 0
-1400 9103 0
-1401 9103 0
-1403 9103 0
-1405 9103 0
-1414 9103 0
-1415 9103 0
-1416 9103 0
-1418 9103 0
-1425 9103 0
-1427 9103 0
-1430 9103 0
-1436 9103 0
-1438 9103 0
-1440 9103 0
-1454 9103 0
-1471 9103 0
-1495 9103 0
-1520 9103 0
-1523 9103 0
-1530 9103 0
-1534 9103 0
-9103 1450 1495 1438 1485 1457 1539 1462 1471 1474 1491 1394 1507 1493 1509 1403 1530 1430 1534 1480 1489 1415 1422 1401 1533 1490 1466 1400 1405 1418 1425 1427 1469 1421 1504 1446 1523 1524 1501 1497 1515 1414 1536 1468 1502 1479 1520 1424 1436 1454 1416 1440 1476 1409 1511 1407 1398 1482 1448 1499 1452 0
-9104 0
-1601 9105 0
-1619 9105 0
-1622 9105 0
-1625 9105 0
-1628 9105 0
-1648 9105 0
-1650 9105 0
-1687 9105 0
-1689 9105 0
-1702 9105 0
-1718 9105 0
-1721 9105 0
-9105 1688 1601 1697 1705 1623 1614 1619 1650 1620 1718 1737 1667 1680 1689 1596 1702 1678 1721 1677 1722 1695 1607 1634 1652 1672 1666 1655 1660 1592 1683 1700 1732 1691 1674 1664 1612 1687 1638 1625 1734 1605 1616 1713 1598 1644 1669 1599 1613 1646 1707 1648 1693 1699 1622 1709 1728 1628 1731 1636 1603 0
-9106 0
-1844 9107 0
-1881 9107 0
-9107 1935 1881 1796 1799 1790 1907 1850 1911 1870 1811 1932 1844 1875 1836 1929 1876 1878 1905 1794 1817 1810 1885 1919 1820 1818 1853 1867 1858 1846 1864 1865 1889 1842 1872 1801 1893 1814 1848 1805 1862 1803 1826 1891 1832 1895 1930 1834 1797 1887 1812 1897 1900 1821 1898 1916 1823 1920 1886 1903 1926 0
-9108 0
-9105 -9099 -9101 0
-9105 -9099 -9107 0
-9103 -9101 -9107 0
-9105 -9101 -9107 0
-9103 -9105 -9107 0
9101 9099 9105 9107 9104 9100 9106 9102 9108 0
9103 9101 9105 9107 9104 9102 9106 9100 9108 0
-364 9109 0
-370 9109 0
-389 9109 0
-392 9109 0
-394 9109 0
-9109 392 362 389 349 364 394 370 363 0
-9110 0
-597 9111 0
-598 9111 0
-604 9111 0
-606 9111 0
-610 9111 0
-612 9111 0
-628 9111 0
-630 9111 0
-634 9111 0
-636 9111 0
-637 9111 0
-639 9111 0
-643 9111 0
-645 9111 0
-651 9111 0
-655 9111 0
-657 9111 0
-661 9111 0
-663 9111 0
-666 9111 0
-685 9111 0
-694 9111 0
-696 9111 0
-714 9111 0
-716 9111 0
-719 9111 0
-727 9111 0
-729 9111 0
-740 9111 0
-9111 606 740 729 612 685 597 636 630 743 714 651 639 634 598 628 727 694 643 610 663 637 655 657 719 666 604 716 645 661 696 0
-9112 0
-1396 9113 0
-1402 9113 0
-1404 9113 0
-1408 9113 0
-1410 9113 0
-1426 9113 0
-1428 9113 0
-1432 9113 0
-1434 9113 0
-1435 9113 0
-1437 9113 0
-1441 9113 0
-1443 9113 0
-1449 9113 0
-1453 9113 0
-1455 9113 0
-1459 9113 0
-1461 9113 0
-1464 9113 0
-1483 9113 0
-1492 9113 0
-1494 9113 0
-1514 9113 0
-1517 9113 0
-1525 9113 0
-1527 9113 0
-1538 9113 0
-1541 9113 0
-9113 1395 1461 1428 1541 1517 1396 1434 1538 1455 1402 1449 1512 1527 1408 1432 1514 1492 1426 1435 1483 1404 1410 1494 1453 1441 1443 1459 1464 1525 1437 0
-9114 0
-1593 9115 0
-1594 9115 0
-1600 9115 0
-1602 9115 0
-1606 9115 0
-1608 9115 0
-1624 9115 0
-1626 9115 0
-1630 9115 0
-1632 9115 0
-1633 9115 0
-1635 9115 0
-1639 9115 0
-1641 9115 0
-1651 9115 0
-1653 9115 0
-1657 9115 0
-1659 9115 0
-1662 9115 0
-1681 9115 0
-1690 9115 0
-1692 9115 0
-1710 9115 0
-1712 9115 0
-1715 9115 0
-1725 9115 0
-1736 9115 0
-1739 9115 0
-9115 1712 1602 1594 1710 1633 1608 1657 1723 1651 1626 1736 1692 1639 1593 1690 1624 1647 1641 1725 1632 1662 1739 1681 1635 1659 1600 1653 1606 1630 1715 0
-9116 0
-1792 9117 0
-1798 9117 0
-1800 9117 0
-1806 9117 0
-1831 9117 0
-1833 9117 0
-1837 9117 0
-1839 9117 0
-1845 9117 0
-1855 9117 0
-1879 9117 0
-1888 9117 0
-1890 9117 0
-1908 9117 0
-1910 9117 0
-1913 9117 0
-1921 9117 0
-1923 9117 0
-1934 9117 0
-1937 9117 0
-9117 1830 1804 1908 1910 1845 1879 1923 1791 1860 1855 1851 1839 1937 1913 1921 1890 1800 1888 1857 1792 1824 1822 1833 1806 1828 1849 1831 1934 1837 1798 0
-9118 0
-9109 -9111 0
-9109 -9115 0
-9109 -9117 0
-9113 -9111 0
-9111 -9115 0
-9111 -9117 0
-9113 -9115 0
-9113 -9117 0
-9115 -9117 0
9111 9113 9109 9115 9117 9114 9112 9116 9110 9118 0
-400 9119 0
-407 9119 0
-411 9119 0
-425 9119 0
-431 9119 0
-444 9119 0
-9119 495 453 404 501 400 538 540 399 486 527 407 468 428 409 444 524 454 493 411 499 456 516 484 431 418 487 425 422 442 420 0
-801 9121 0
-816 9121 0
-1941 9123 0
-1942 9123 0
-1946 9123 0
-1949 9123 0
-1951 9123 0
-1953 9123 0
-1962 9123 0
-1964 9123 0
-1970 9123 0
-1973 9123 0
-1986 9123 0
-1998 9123 0
-2028 9123 0
9123 -2029 0
-2035 9123 0
9123 -2041 0
9123 -2043 0
-2058 9123 0
-2066 9123 0
-2080 9123 0
-9123 2029 1942 1995 2043 2069 1964 2058 1967 2082 1941 1962 2066 1996 1946 2028 2037 1998 2026 2041 2010 2080 1960 1951 2035 1970 1973 1953 1949 1986 1984 0
-2096 9125 0
-2097 9125 0
-2117 9125 0
-2120 9125 0
-9125 2091 2097 2131 2100 2120 2096 2103 2134 2092 2117 0
-2144 9127 0
-2148 9127 0
-2154 9127 0
-2159 9127 0
-2162 9127 0
-2165 9127 0
-2175 9127 0
-9127 2170 2137 2159 2175 2148 2162 2165 2144 2154 2141 0
-9119 -9123 0
-9127 -9119 0
-9121 -9127 0
-9125 -9123 0
-9127 -9123 0
-9125 -9127 0
-467 9129 0
-9129 509 437 469 496 542 498 410 481 455 463 504 474 477 532 424 479 531 529 439 541 518 514 430 441 436 459 448 464 412 432 471 408 457 416 465 476 427 488 491 451 443 500 406 502 507 467 403 397 510 512 438 517 521 401 447 545 445 535 526 414 0
-9130 0
-9132 0
-9133 2001 2056 2083 1983 2038 2077 1950 2051 2052 1943 2073 1989 2060 2049 2030 1981 1945 2054 2013 1993 1956 1958 1979 2084 2042 2019 2016 2009 2071 1997 2023 1939 2007 2040 2063 1954 1952 2087 2005 1985 1999 2046 1948 2018 2074 1980 2033 2068 2044 1978 1990 2021 1987 1972 2011 1966 2006 1974 1969 2059 0
-9134 0
-2089 9135 0
-2090 9135 0
-2110 9135 0
-2115 9135 0
-2121 9135 0
-2123 9135 0
-9135 2110 2101 2099 2113 2132 2124 2089 2112 2115 2090 2093 2133 2122 2121 2125 2116 2128 2123 2130 0
-9136 0
-2138 9137 0
-2163 9137 0
-9137 2172 2142 2146 2155 2179 2177 2178 2171 2158 2173 2156 2163 2161 2140 2149 2150 2138 2147 2139 0
-9138 0
-9135 -9137 -9129 0
9129 9133 9135 9137 9134 9132 9136 9130 9138 0
-809 9141 0
-820 9141 0
-876 9141 0
9145 -2119 0
9145 -2127 0
-9145 2129 2111 2108 2127 2118 2094 2104 2109 2102 2119 2114 2126 2135 2106 2098 2105 2107 2136 2095 0
9147 -2169 0
-9141 -9145 -9147 0
9159 -399 0
9159 -400 0
-421 9159 0
-435 9159 0
-446 9159 0
-449 9159 0
9159 -453 0
-487 9159 0
-523 9159 0
-1975 9163 0
-1977 9163 0
-1988 9163 0
9163 -2029 0
-2032 9163 0
-2034 9163 0
-2064 9163 0
-2065 9163 0
-2067 9163 0
-2078 9163 0
-2086 9163 0
-2088 9163 0
-9163 2029 1942 1991 1957 2010 2004 2086 1941 1963 2072 2064 2078 2034 2062 1965 1977 2002 2088 1959 2067 2075 1988 2081 2058 1995 2027 2065 2024 2032 1975 0
-2109 9165 0
-2111 9165 0
-2114 9165 0
-2118 9165 0
-2119 9165 0
-2120 9165 0
-9165 2119 2118 2111 2120 2109 2114 2117 2106 0
-2169 9167 0
-2174 9167 0
-2183 9167 0
-9159 -9163 0
-9165 -9159 0
-9167 -9159 0
9169 -467 0
9175 -2089 0
9177 -2141 0
-9175 -9177 -9169 0
-401 9179 0
-403 9179 0
-410 9179 0
-415 9179 0
-416 9179 0
-417 9179 0
-423 9179 0
-424 9179 0
-427 9179 0
-433 9179 0
-435 9179 0
-437 9179 0
-443 9179 0
-446 9179 0
-448 9179 0
-449 9179 0
-455 9179 0
-460 9179 0
-462 9179 0
-464 9179 0
-471 9179 0
-474 9179 0
-477 9179 0
-479 9179 0
-482 9179 0
-9179 509 469 435 490 533 464 462 421 488 504 485 544 477 417 514 479 502 448 401 539 474 455 427 423 416 482 415 523 443 492 481 476 517 446 460 491 437 522 451 500 507 526 541 510 467 449 536 512 471 397 520 433 525 530 546 424 403 535 410 532 0
-9180 0
-9181 781 829 810 825 745 865 771 830 785 850 764 775 765 783 791 749 796 751 799 772 808 815 812 758 769 819 822 824 763 827 797 794 833 817 838 839 840 848 803 836 852 855 857 858 862 860 868 870 871 873 874 878 880 881 883 884 887 889 892 894 0
-9182 0
-9183 2023 2051 2064 2044 1943 2052 2027 1959 1991 2072 2009 2083 2067 2006 1997 2054 2086 2056 2081 2002 2062 1945 2042 1979 2077 2013 2033 2088 1975 1993 1977 2021 2019 2059 2024 2034 1957 2049 2075 2030 2018 2068 1988 2065 2016 2046 1966 1939 2004 2074 2078 1969 1965 1985 1952 1990 2032 1963 1958 2011 0
-9184 0
-2089 9185 0
-2109 9185 0
-2111 9185 0
-2112 9185 0
-2113 9185 0
-2118 9185 0
-2121 9185 0
-2124 9185 0
-9185 2121 2093 2132 2124 2133 2099 2113 2114 2119 2122 2090 2118 2106 2109 2089 2101 2111 2110 2112 0
-9186 0
-9187 2171 2140 2158 2177 2179 2174 2152 2156 2155 2172 2161 2169 2183 2184 2173 2178 2142 2163 2157 0
-9188 0
9183 9179 9185 9187 9184 9182 9186 9180 9188 0
9181 9183 9185 9187 9184 9182 9186 9180 9188 0
9199 -400 0
-439 9199 0
-441 9199 0
9199 -496 0
-9199 516 453 432 521 399 542 441 518 529 545 487 430 447 406 463 400 457 496 465 468 408 445 459 436 498 412 439 531 438 414 0
-1941 9203 0
-1948 9203 0
-1950 9203 0
-1954 9203 0
-1956 9203 0
-1972 9203 0
-1978 9203 0
-1981 9203 0
-1987 9203 0
-1999 9203 0
-2029 9203 0
-2040 9203 0
-2063 9203 0
-2073 9203 0
-2087 9203 0
-9203 1972 2029 1999 2038 1942 2073 2060 2058 2063 2010 2005 1989 2087 2084 1950 1941 2040 2071 2007 1956 1995 1987 1981 1948 1974 1978 1954 2001 1980 1983 0
-2116 9205 0
-2117 9205 0
-2123 9205 0
-2125 9205 0
-2130 9205 0
-2146 9207 0
-2148 9207 0
-9207 2148 2138 2137 2150 2146 2147 2149 2139 0
-9203 -9199 0
-9205 -9203 0
-352 9209 0
-376 9209 0
-391 9209 0
-9209 376 352 350 386 358 357 383 391 363 370 0
-488 9211 0
-492 9211 0
-494 9211 0
-498 9211 0
-500 9211 0
-515 9211 0
-9211 528 427 398 441 537 494 485 408 539 467 401 452 500 419 403 488 410 455 412 523 483 515 432 443 417 421 498 492 426 457 0
-760 9213 0
-789 9213 0
-1413 9215 0
-9215 1463 1488 1524 1406 1394 1397 1494 1408 1415 1448 1413 1484 1479 1496 1428 1453 1451 1423 1535 1439 1437 1533 1404 1511 1422 1481 1490 1399 1417 1519 0
-1943 9217 0
-1994 9217 0
-2057 9217 0
-9209 -9211 0
-9213 -9209 0
-9217 -9209 0
-9219 390 381 371 359 372 367 349 369 368 382 379 351 380 361 373 395 389 360 388 0
-9220 0
-9221 499 464 435 478 514 456 444 447 411 423 404 531 428 542 482 525 462 400 429 497 501 468 405 487 518 446 465 454 409 448 415 442 431 413 473 511 438 532 480 530 522 472 451 470 490 397 506 505 503 546 440 536 517 407 437 458 508 513 475 541 0
-9222 0
-9224 0
-9225 1450 1510 1447 1518 1433 1461 1504 1431 1478 1443 1438 1502 1474 1468 1427 1403 1476 1460 1393 1542 1425 1527 1469 1514 1499 1419 1521 1471 1409 1501 1486 1407 1452 1495 1411 1458 1400 1442 1538 1401 1493 1509 1464 1507 1513 1483 1454 1537 1424 1405 1436 1526 1440 1497 1466 1528 1532 1434 1396 1444 0
-9226 0
-9227 2074 1979 1986 2043 2029 2047 2072 2022 2083 1953 2050 2053 2039 2060 2055 2020 2010 2059 2084 1993 1989 1971 2041 1939 1949 1998 1984 1982 2048 2006 1942 1965 1955 2064 2078 1947 2088 1980 2032 2000 2056 1951 2014 1977 1990 2015 1970 2067 2007 2045 2017 1996 2073 1988 2024 2012 1973 2004 1946 1957 0
-9228 0
9221 9219 9225 9227 9224 9220 9226 9222 9228 0
9245 -1409 0
-1410 9245 0
9245 -1454 0
9245 -1455 0
9245 -1462 0
-9245 1398 1512 1506 1529 1540 1528 1485 1401 1470 1491 1480 1403 1455 1444 1472 1475 1462 1516 1438 1473 1409 1542 1534 1456 1523 1467 1427 1503 1537 1449 1492 1495 1407 1465 1395 1513 1410 1508 1493 1442 1460 1435 1426 1433 1402 1421 1458 1505 1429 1431 1445 1498 1518 1416 1452 1425 1436 1500 1454 1526 0
-352 9249 0
-391 9249 0
9249 -392 0
-393 9249 0
-398 9251 0
-401 9251 0
-416 9251 0
-418 9251 0
-422 9251 0
-424 9251 0
-434 9251 0
-436 9251 0
-445 9251 0
-450 9251 0
-452 9251 0
-461 9251 0
-463 9251 0
9251 -467 0
-481 9251 0
-486 9251 0
-488 9251 0
-491 9251 0
-493 9251 0
-515 9251 0
-519 9251 0
-524 9251 0
-526 9251 0
-529 9251 0
-534 9251 0
-535 9251 0
-540 9251 0
-543 9251 0
-545 9251 0
-1958 9257 0
-1966 9257 0
-1994 9257 0
-2005 9257 0
-2057 9257 0
-2063 9257 0
-2066 9257 0
-2071 9257 0
-2076 9257 0
-2077 9257 0
-2085 9257 0
-9249 -9251 0
-9257 -9249 0
9265 -1393 0
9265 -1415 0
9265 -1422 0
-1434 9265 0
-9265 1437 1468 1450 1524 1404 1464 1393 1461 1496 1507 1415 1474 1535 1533 1527 1424 1510 1478 1469 1423 1538 1466 1405 1476 1521 1519 1413 1490 1439 1499 1509 1479 1406 1411 1483 1443 1400 1502 1453 1451 1440 1497 1434 1481 1514 1471 1422 1428 1419 1486 1488 1399 1396 1417 1447 1408 1532 1504 1501 1494 0
-9269 388 359 380 354 369 368 349 372 379 353 382 381 351 384 385 393 389 392 371 0
-9270 0
-9271 490 475 531 478 409 514 404 400 447 518 444 445 481 461 535 542 450 397 463 543 436 454 423 534 486 434 468 511 418 473 501 480 482 524 470 491 428 438 451 506 493 505 503 508 513 415 545 487 465 525 521 422 529 416 472 540 424 526 519 536 0
-9272 0
-9274 0
-9275 1396 1450 1471 1525 1509 1469 1504 1536 1521 1510 1447 1502 1527 1443 1514 1466 1414 1393 1418 1446 1430 1497 1412 1507 1531 1419 1489 1539 1432 1424 1501 1411 1468 1487 1405 1538 1461 1400 1532 1520 1530 1482 1499 1420 1474 1541 1476 1440 1457 1522 1477 1464 1515 1459 1441 1517 1434 1483 1486 1478 0
-9276 0
-9277 2029 2043 2066 2084 2076 2047 2020 1939 2068 2022 2073 1989 2032 2045 1958 2071 2063 2082 2028 1980 1957 1964 2056 2015 2010 2061 2050 2085 2077 1946 2078 1976 1993 2033 1951 2048 2035 1978 1965 1986 2087 1992 2005 2023 2060 2067 1996 1987 2003 1960 2007 1970 2012 2014 1942 2053 2055 2017 1966 2024 0
-9278 0
9271 9269 9275 9277 9274 9270 9276 9272 9278 0
-9279 363 355 365 370 350 383 387 374 377 364 376 356 396 378 375 394 357 366 386 362 358 0
-9280 0
-9281 496 453 469 485 441 537 544 410 483 439 420 474 477 528 509 412 433 455 402 417 516 502 427 425 414 443 449 419 457 471 476 408 459 432 426 466 399 484 492 494 495 460 498 489 403 504 507 500 510 512 523 533 430 527 406 479 421 538 539 520 0
-9282 0
-9283 767 774 876 805 768 747 750 801 814 817 803 758 773 850 754 778 875 751 787 760 791 756 775 762 769 831 765 868 789 819 822 824 825 827 797 832 833 837 780 808 843 844 846 848 807 840 852 855 857 858 864 860 871 842 781 881 885 886 887 892 0
-9284 0
-1494 9285 0
-9285 1426 1462 1398 1435 1506 1472 1415 1540 1470 1534 1496 1465 1479 1445 1500 1456 1494 1519 1437 1402 1503 1413 1473 1408 1428 1421 1498 1505 1416 1423 1395 1492 1508 1512 1516 1475 1480 1449 1523 1439 1453 1535 1455 1491 1529 1404 1481 1485 1417 1488 1399 1422 1406 1524 1410 1490 1429 1451 1467 1533 0
-9286 0
-9287 2037 2051 2001 2042 1995 1945 2081 1959 2086 1950 1956 2016 1985 2069 2018 2049 1967 2080 2075 1962 1972 1944 1963 2019 2044 1974 2036 2038 1983 2013 2011 2065 1948 1968 1941 2026 1981 1952 2027 2034 2070 2002 2040 1991 1997 1975 1969 2021 2031 2052 2054 2062 1954 1961 2046 1999 2025 2079 2008 2058 0
-9288 0
9281 9279 9283 9287 9280 9284 9286 9282 9288 0
-391 9289 0
-497 9291 0
-1427 9295 0
-1433 9295 0
-1454 9295 0
-1484 9295 0
-9295 1433 1438 1397 1463 1444 1431 1452 1526 1394 1448 1407 1425 1401 1409 1484 1537 1460 1454 1518 1528 1513 1493 1542 1403 1495 1427 1458 1511 1436 1442 0
-9289 -9291 0
-596 9299 0
-599 9299 0
-601 9299 0
-606 9299 0
-608 9299 0
-610 9299 0
-615 9299 0
-617 9299 0
-619 9299 0
-624 9299 0
-625 9299 0
-630 9299 0
-639 9299 0
-641 9299 0
-650 9299 0
-653 9299 0
-655 9299 0
-665 9299 0
-681 9299 0
-683 9299 0
-686 9299 0
-690 9299 0
-692 9299 0
-696 9299 0
-698 9299 0
-713 9299 0
-721 9299 0
-726 9299 0
-735 9299 0
-737 9299 0
-9299 713 596 698 726 639 681 624 655 653 686 619 606 690 617 615 692 641 599 630 683 608 610 696 601 737 650 721 665 625 735 0
-9300 0
-1595 9301 0
-1597 9301 0
-1602 9301 0
-1604 9301 0
-1606 9301 0
-1611 9301 0
-1613 9301 0
-1615 9301 0
-1620 9301 0
-1621 9301 0
-1626 9301 0
-1635 9301 0
-1637 9301 0
-1649 9301 0
-1651 9301 0
-1661 9301 0
-1679 9301 0
-1686 9301 0
-1692 9301 0
-1694 9301 0
-1709 9301 0
-1717 9301 0
-1722 9301 0
-1731 9301 0
-1733 9301 0
-9301 1688 1595 1717 1597 1709 1602 1604 1615 1733 1651 1694 1620 1682 1626 1677 1649 1646 1635 1613 1592 1692 1611 1637 1606 1686 1661 1621 1731 1722 1679 0
-9302 0
-1795 9303 0
-1800 9303 0
-1804 9303 0
-1809 9303 0
-1811 9303 0
-1818 9303 0
-1819 9303 0
-1824 9303 0
-1833 9303 0
-1835 9303 0
-1844 9303 0
-1849 9303 0
-1859 9303 0
-1875 9303 0
-1877 9303 0
-1880 9303 0
-1886 9303 0
-1890 9303 0
-1892 9303 0
-1920 9303 0
-1929 9303 0
-1931 9303 0
-9303 1880 1790 1793 1892 1844 1795 1907 1931 1929 1875 1802 1886 1920 1877 1809 1849 1835 1915 1859 1800 1824 1818 1813 1884 1833 1819 1804 1890 1811 1847 0
-9304 0
-2089 9305 0
-2095 9305 0
-2098 9305 0
-2099 9305 0
-2114 9305 0
-2119 9305 0
-2126 9305 0
-9305 2095 2104 2119 2126 2098 2089 2114 2099 2110 0
-9306 0
-2138 9307 0
-2140 9307 0
-2145 9307 0
-2147 9307 0
-2156 9307 0
-2161 9307 0
-2166 9307 0
-2172 9307 0
-2180 9307 0
-9307 2147 2138 2161 2166 2172 2145 2180 2156 2140 0
-9308 0
-9301 -9299 0
-9299 -9303 0
-9305 -9299 0
-9307 -9299 0
-9301 -9303 0
-9305 -9301 0
-9301 -9307 0
-9307 -9303 0
-9305 -9307 0
9301 9299 9303 9305 9307 9304 9302 9306 9300 9308 0
-595 9309 0
-603 9309 0
-611 9309 0
-629 9309 0
-656 9309 0
-671 9309 0
-673 9309 0
-676 9309 0
-678 9309 0
-695 9309 0
-701 9309 0
-703 9309 0
-711 9309 0
-9309 695 626 670 671 685 734 673 715 642 712 621 605 728 609 602 706 711 638 636 709 744 607 633 680 739 662 676 611 613 645 635 720 660 646 668 701 627 652 688 697 723 666 595 699 603 729 730 704 678 663 640 654 716 644 629 703 598 649 740 656 0
-9310 0
-1591 9311 0
-1598 9311 0
-1599 9311 0
-1607 9311 0
-1617 9311 0
-1623 9311 0
-1640 9311 0
-1650 9311 0
-1652 9311 0
-1656 9311 0
-1662 9311 0
-1672 9311 0
-1697 9311 0
-1705 9311 0
-1708 9311 0
-1712 9311 0
-9311 1697 1591 1638 1652 1705 1666 1648 1702 1716 1658 1669 1691 1693 1659 1640 1634 1623 1712 1711 1632 1601 1662 1708 1642 1707 1617 1719 1641 1676 1622 1605 1636 1645 1700 1672 1656 1625 1594 1699 1607 1599 1695 1603 1598 1664 1724 1726 1674 1631 1740 1667 1650 1629 1730 1735 1725 1684 1609 1681 1736 0
-9312 0
-1815 9313 0
-1843 9313 0
-1854 9313 0
-1879 9313 0
-9313 1879 1862 1792 1856 1867 1903 1846 1889 1807 1909 1938 1914 1933 1796 1865 1928 1797 1799 1838 1789 1839 1906 1905 1848 1850 1924 1821 1857 1830 1836 1864 1829 1840 1854 1860 1874 1823 1870 1820 1872 1893 1882 1805 1803 1897 1827 1891 1801 1895 1834 1815 1917 1900 1923 1832 1922 1898 1843 1910 1934 0
-9314 0
-9315 0
-9316 0
-2137 9317 0
-2139 9317 0
-2141 9317 0
-2142 9317 0
-2143 9317 0
-2144 9317 0
-2146 9317 0
-2148 9317 0
-2149 9317 0
-2150 9317 0
-2151 9317 0
-2152 9317 0
-2153 9317 0
-2154 9317 0
-2155 9317 0
-2157 9317 0
-2158 9317 0
-2162 9317 0
-2163 9317 0
-2164 9317 0
-2165 9317 0
-2167 9317 0
-2169 9317 0
-2170 9317 0
-2171 9317 0
-2173 9317 0
-2175 9317 0
-2176 9317 0
-2177 9317 0
-2179 9317 0
-2182 9317 0
-2183 9317 0
-9317 2158 2142 2168 2184 2173 2137 2178 2159 2176 2143 2167 2151 2174 2153 2141 2160 2148 2170 2169 2150 2171 2181 2154 2175 2149 2163 2164 2165 2144 2139 2179 2177 2155 2152 2157 2182 2183 2146 2162 0
-9318 0
-9313 -9309 -9311 0
-9313 -9309 -9317 0
-9313 -9311 -9317 0
9309 9311 9313 9312 9310 9314 9315 9316 9318 0
9309 9317 9311 9312 9314 9315 9316 9310 9318 0
9309 9317 9313 9310 9314 9315 9316 9312 9318 0
9317 9311 9313 9310 9314 9315 9316 9312 9318 0
-597 9319 0
-612 9319 0
-628 9319 0
-634 9319 0
-637 9319 0
-643 9319 0
-661 9319 0
-669 9319 0
-675 9319 0
-705 9319 0
-707 9319 0
-708 9319 0
-719 9319 0
-722 9319 0
-738 9319 0
-9319 689 651 667 705 725 597 736 702 628 664 669 731 661 738 657 612 675 600 647 727 623 743 694 693 707 618 658 672 634 710 648 679 659 632 616 682 637 604 700 614 724 674 684 717 631 719 691 643 718 687 708 732 733 622 722 620 741 742 677 714 0
-9320 0
-1596 9321 0
-1660 9321 0
-1683 9321 0
-1703 9321 0
-1715 9321 0
-9321 1665 1593 1668 1657 1670 1671 1703 1680 1644 1738 1696 1739 1655 1639 1624 1618 1673 1720 1685 1737 1660 1630 1633 1610 1683 1596 1619 1690 1701 1687 1643 1616 1723 1653 1628 1710 1627 1600 1678 1698 1608 1654 1727 1706 1612 1713 1689 1663 1614 1704 1647 1721 1718 1728 1729 1715 1714 1734 1732 1675 0
-9322 0
-1845 9323 0
-1881 9323 0
-9323 1894 1794 1845 1881 1791 1814 1817 1921 1937 1851 1861 1855 1908 1831 1918 1919 1930 1876 1912 1822 1926 1935 1927 1858 1853 1883 1866 1868 1837 1863 1878 1828 1842 1826 1841 1932 1885 1852 1936 1873 1825 1896 1806 1899 1888 1798 1871 1904 1916 1887 1911 1816 1812 1869 1925 1901 1810 1913 1808 1902 0
-9324 0
-2090 9325 0
-2091 9325 0
-2092 9325 0
-2093 9325 0
-2100 9325 0
-2101 9325 0
-2107 9325 0
-2108 9325 0
-2109 9325 0
-2115 9325 0
-2116 9325 0
-2117 9325 0
-2118 9325 0
-2120 9325 0
-2121 9325 0
-2123 9325 0
-2125 9325 0
-2128 9325 0
-2129 9325 0
-2130 9325 0
-2134 9325 0
-2135 9325 0
-2136 9325 0
-9325 2094 2101 2117 2111 2132 2118 2096 2093 2108 2090 2115 2102 2134 2127 2092 2103 2105 2100 2121 2107 2135 2125 2116 2097 2109 2122 2123 2124 2131 2120 2129 2130 2113 2128 2133 2106 2112 2136 2091 0
-9326 0
-9327 0
-9328 0
-9319 -9321 -9323 0
-9319 -9325 -9323 0
-9325 -9321 -9323 0
9321 9319 9323 9322 9320 9324 9326 9327 9328 0
9323 9325 9319 9320 9324 9322 9326 9327 9328 0
9325 9323 9321 9320 9324 9322 9326 9327 9328 0
-627 9329 0
-629 9329 0
-638 9329 0
-654 9329 0
-664 9329 0
-667 9329 0
-669 9329 0
-672 9329 0
-674 9329 0
-687 9329 0
-697 9329 0
-700 9329 0
-707 9329 0
-708 9329 0
-710 9329 0
-9329 705 644 687 707 736 725 702 728 731 667 664 631 672 657 628 609 677 744 623 612 720 600 710 633 635 604 708 618 695 693 611 603 647 629 669 640 646 662 694 654 638 714 658 674 656 675 627 715 718 651 597 700 730 660 697 739 742 637 682 605 0
-9330 0
-1601 9331 0
-1623 9331 0
-1625 9331 0
-1650 9331 0
-1656 9331 0
-1660 9331 0
-1663 9331 0
-1670 9331 0
-1703 9331 0
-9331 1689 1668 1706 1652 1703 1658 1670 1656 1696 1690 1653 1663 1691 1698 1654 1710 1619 1683 1596 1636 1665 1724 1599 1650 1607 1660 1627 1714 1625 1693 1740 1634 1642 1624 1593 1673 1647 1671 1631 1601 1678 1600 1711 1633 1735 1608 1727 1716 1614 1623 1643 1605 1704 1701 1640 1721 1726 1629 1732 1738 0
-9332 0
-1799 9333 0
-1845 9333 0
-1881 9333 0
-9333 1881 1799 1840 1888 1889 1794 1876 1845 1821 1851 1841 1933 1850 1908 1854 1838 1832 1914 1912 1887 1930 1791 1806 1797 1909 1822 1817 1852 1904 1858 1861 1863 1798 1868 1869 1871 1866 1823 1848 1825 1827 1891 1812 1936 1896 1803 1899 1894 1938 1829 1831 1856 1805 1834 1901 1922 1919 1902 1925 1924 0
-9334 0
-2094 9335 0
-2096 9335 0
-2097 9335 0
-2106 9335 0
-2111 9335 0
-2112 9335 0
-2113 9335 0
-2122 9335 0
-2132 9335 0
-9335 2094 2097 2132 2103 2133 2113 2096 2122 2112 2111 2102 2106 2124 2131 2105 0
-9336 0
-2137 9337 0
-2139 9337 0
-2143 9337 0
-2144 9337 0
-2146 9337 0
-2148 9337 0
-2151 9337 0
-2154 9337 0
-2155 9337 0
-2157 9337 0
-2158 9337 0
-2164 9337 0
-2165 9337 0
-2167 9337 0
-2173 9337 0
-2174 9337 0
-2178 9337 0
-2179 9337 0
-2183 9337 0
-2184 9337 0
-9337 2158 2137 2179 2174 2184 2139 2178 2146 2155 2169 2164 2157 2170 2167 2151 2173 2154 2144 2152 2143 2165 2148 2171 2183 0
-9338 0
-9329 -9331 -9333 0
-9335 -9329 -9333 0
-9329 -9333 -9337 0
-9335 -9331 -9333 0
-9331 -9333 -9337 0
9329 9331 9333 9335 9330 9334 9332 9336 9338 0
9329 9335 9337 9333 9334 9332 9336 9330 9338 0
9333 9335 9337 9331 9334 9332 9336 9330 9338 0
-599 9339 0
-614 9339 0
-616 9339 0
-620 9339 0
-622 9339 0
-632 9339 0
-634 9339 0
-643 9339 0
-648 9339 0
-650 9339 0
-659 9339 0
-661 9339 0
-665 9339 0
-679 9339 0
-684 9339 0
-686 9339 0
-689 9339 0
-691 9339 0
-717 9339 0
-719 9339 0
-722 9339 0
-724 9339 0
-732 9339 0
-733 9339 0
-738 9339 0
-741 9339 0
-9339 620 665 691 722 727 724 643 632 743 738 686 650 616 689 634 713 717 596 599 679 648 719 614 732 661 684 733 622 659 741 0
-9340 0
-1592 9341 0
-1595 9341 0
-1610 9341 0
-1612 9341 0
-1616 9341 0
-1618 9341 0
-1628 9341 0
-1630 9341 0
-1639 9341 0
-1644 9341 0
-1646 9341 0
-1655 9341 0
-1657 9341 0
-1661 9341 0
-1675 9341 0
-1680 9341 0
-1682 9341 0
-1687 9341 0
-1709 9341 0
-1713 9341 0
-1715 9341 0
-1718 9341 0
-1720 9341 0
-1723 9341 0
-1728 9341 0
-1729 9341 0
-1734 9341 0
-1737 9341 0
-1739 9341 0
-9341 1661 1592 1610 1687 1657 1685 1728 1680 1713 1595 1709 1739 1639 1737 1646 1715 1734 1612 1616 1630 1644 1723 1655 1718 1720 1628 1675 1682 1729 1618 0
-9342 0
-1790 9343 0
-1793 9343 0
-1810 9343 0
-1814 9343 0
-1816 9343 0
-1826 9343 0
-1828 9343 0
-1837 9343 0
-1842 9343 0
-1844 9343 0
-1853 9343 0
-1855 9343 0
-1873 9343 0
-1878 9343 0
-1880 9343 0
-1907 9343 0
-1911 9343 0
-1913 9343 0
-1916 9343 0
-1918 9343 0
-1921 9343 0
-1926 9343 0
-1927 9343 0
-1932 9343 0
-1935 9343 0
-1937 9343 0
-9343 1793 1880 1844 1855 1853 1885 1937 1878 1808 1883 1921 1873 1911 1842 1859 1932 1935 1837 1814 1790 1918 1828 1926 1907 1816 1913 1810 1916 1826 1927 0
-9344 0
-9345 0
-9346 0
-2138 9347 0
-2140 9347 0
-2141 9347 0
-2142 9347 0
-2145 9347 0
-2147 9347 0
-2149 9347 0
-2150 9347 0
-2153 9347 0
-2156 9347 0
-2159 9347 0
-2160 9347 0
-2161 9347 0
-2162 9347 0
-2163 9347 0
-2166 9347 0
-2168 9347 0
-2172 9347 0
-2175 9347 0
-2176 9347 0
-2177 9347 0
-2180 9347 0
-2181 9347 0
-2182 9347 0
-9347 2177 2141 2149 2156 2159 2138 2182 2150 2145 2166 2161 2147 2172 2175 2162 2176 2142 2163 2160 2153 2180 2168 2181 2140 0
-9348 0
-9339 -9341 0
-9339 -9343 0
-9339 -9347 0
-9341 -9343 0
-9341 -9347 0
-9347 -9343 0
9341 9339 9343 9347 9340 9344 9345 9346 9342 9348 0
-601 9349 0
-610 9349 0
-615 9349 0
-630 9349 0
-639 9349 0
-653 9349 0
-671 9349 0
-673 9349 0
-681 9349 0
-692 9349 0
-698 9349 0
-701 9349 0
-737 9349 0
-9349 709 626 639 685 729 671 613 653 610 601 602 726 680 681 641 615 740 676 655 737 607 673 734 711 621 692 696 698 624 652 712 701 608 663 619 703 645 595 688 666 735 678 670 699 625 636 723 668 706 617 649 716 606 683 630 690 598 642 704 721 0
-9350 0
-1598 9351 0
-1603 9351 0
-1609 9351 0
-1620 9351 0
-1666 9351 0
-1672 9351 0
-1697 9351 0
-1705 9351 0
-1708 9351 0
-9351 1697 1662 1602 1667 1603 1688 1699 1651 1659 1645 1684 1649 1681 1664 1712 1686 1672 1621 1722 1609 1669 1598 1679 1692 1695 1719 1648 1674 1730 1615 1731 1700 1591 1604 1597 1617 1736 1705 1606 1638 1733 1708 1635 1641 1611 1702 1717 1676 1637 1707 1626 1620 1594 1694 1632 1622 1666 1613 1725 1677 0
-9352 0
-1813 9353 0
-1815 9353 0
-1843 9353 0
-1874 9353 0
-1879 9353 0
-9353 1862 1801 1795 1792 1903 1807 1879 1830 1882 1867 1934 1846 1789 1865 1802 1847 1910 1800 1920 1875 1877 1860 1796 1895 1849 1857 1839 1915 1864 1906 1928 1870 1872 1874 1819 1820 1836 1815 1833 1835 1897 1892 1893 1890 1931 1811 1813 1824 1898 1804 1818 1900 1917 1809 1923 1843 1929 1905 1884 1886 0
-9354 0
-2091 9355 0
-2092 9355 0
-2093 9355 0
-2098 9355 0
-2104 9355 0
-2107 9355 0
-2108 9355 0
-2109 9355 0
-2114 9355 0
-2115 9355 0
-2116 9355 0
-2117 9355 0
-2118 9355 0
-2120 9355 0
-2121 9355 0
-2123 9355 0
-2125 9355 0
-2127 9355 0
-2128 9355 0
-2129 9355 0
-2130 9355 0
-2134 9355 0
-2135 9355 0
-2136 9355 0
-9355 2121 2093 2099 2130 2104 2120 2115 2119 2101 2091 2100 2090 2092 2095 2110 2114 2108 2116 2107 2118 2117 2109 2098 2123 2125 2126 2127 2129 2128 2134 2135 2136 2089 0
-9356 0
-9357 0
-9358 0
-9353 -9349 -9351 0
-9355 -9353 -9349 0
-9355 -9353 -9351 0
9349 9351 9353 9352 9350 9354 9356 9357 9358 0
9349 9355 9353 9350 9354 9352 9356 9357 9358 0
9355 9351 9353 9350 9354 9352 9356 9357 9358 0
-632 9359 0
-648 9359 0
-671 9359 0
-673 9359 0
-679 9359 0
-701 9359 0
-703 9359 0
-706 9359 0
-711 9359 0
-722 9359 0
-724 9359 0
-733 9359 0
-738 9359 0
-9359 685 671 722 729 613 673 706 626 602 732 734 678 679 648 607 670 621 663 645 659 691 616 743 634 712 709 738 632 680 703 689 704 622 614 676 688 652 711 668 701 649 723 684 643 636 716 717 719 724 595 598 661 620 642 733 727 666 699 740 741 0
-9360 0
-1616 9361 0
-1618 9361 0
-1639 9361 0
-1641 9361 0
-1645 9361 0
-1648 9361 0
-1657 9361 0
-1667 9361 0
-1672 9361 0
-1680 9361 0
-1684 9361 0
-1687 9361 0
-1697 9361 0
-1700 9361 0
-1705 9361 0
-1708 9361 0
-1715 9361 0
-1718 9361 0
-1723 9361 0
-1725 9361 0
-9361 1705 1669 1697 1713 1666 1680 1667 1687 1739 1648 1622 1645 1684 1591 1610 1675 1718 1594 1659 1616 1638 1702 1720 1628 1644 1664 1632 1695 1734 1674 1617 1685 1662 1681 1737 1699 1676 1708 1712 1715 1700 1609 1612 1657 1639 1598 1641 1719 1630 1707 1603 1723 1725 1728 1730 1655 1736 1729 1672 1618 0
-9362 0
-1843 9363 0
-1879 9363 0
-9363 1862 1801 1792 1828 1879 1934 1903 1937 1911 1815 1855 1789 1883 1808 1926 1796 1810 1905 1906 1853 1932 1857 1870 1836 1916 1860 1867 1839 1820 1846 1865 1874 1807 1872 1816 1910 1897 1826 1830 1893 1864 1882 1814 1895 1837 1842 1898 1900 1917 1918 1878 1923 1843 1873 1913 1928 1921 1927 1935 1885 0
-9364 0
-2090 9365 0
-2091 9365 0
-2092 9365 0
-2093 9365 0
-2100 9365 0
-2101 9365 0
-2109 9365 0
-2115 9365 0
-2116 9365 0
-2117 9365 0
-2118 9365 0
-2120 9365 0
-2121 9365 0
-2123 9365 0
-2127 9365 0
-2128 9365 0
-2129 9365 0
-2134 9365 0
-2136 9365 0
-9365 2121 2093 2091 2115 2127 2130 2134 2092 2120 2101 2107 2125 2118 2108 2109 2123 2100 2117 2129 2116 2128 2135 2136 2090 0
-9366 0
-2141 9367 0
-2142 9367 0
-2159 9367 0
-2168 9367 0
-2177 9367 0
-2181 9367 0
-9367 2177 2142 2149 2159 2182 2181 2162 2141 2176 2153 2175 2150 2163 2160 2168 0
-9368 0
-9363 -9359 -9361 0
-9365 -9363 -9359 0
-9367 -9363 -9359 0
-9365 -9363 -9361 0
-9367 -9363 -9361 0
-9367 -9365 -9363 0
9359 9361 9363 9367 9360 9364 9366 9362 9368 0
9365 9363 9359 9367 9364 9362 9366 9360 9368 0
-606 9369 0
-610 9369 0
-669 9369 0
-672 9369 0
-675 9369 0
-683 9369 0
-690 9369 0
-705 9369 0
-707 9369 0
-708 9369 0
-710 9369 0
-721 9369 0
-737 9369 0
-9369 705 672 674 687 725 726 667 721 651 618 731 630 681 631 707 677 628 710 617 612 625 606 690 641 714 619 658 698 600 657 653 604 700 639 736 692 624 601 696 669 694 682 647 655 664 623 683 675 742 693 637 718 610 608 615 597 735 737 708 702 0
-9370 0
-1597 9371 0
-1608 9371 0
-1615 9371 0
-1621 9371 0
-1660 9371 0
-1670 9371 0
-1679 9371 0
-1686 9371 0
-1692 9371 0
-1696 9371 0
-1703 9371 0
-1710 9371 0
-1717 9371 0
-1722 9371 0
-9371 1688 1668 1703 1704 1670 1683 1701 1690 1692 1651 1671 1660 1637 1686 1626 1673 1619 1604 1602 1627 1679 1696 1649 1717 1663 1722 1643 1710 1732 1635 1597 1694 1714 1738 1678 1608 1620 1614 1615 1654 1727 1611 1593 1653 1596 1633 1733 1600 1665 1677 1606 1706 1689 1621 1613 1698 1624 1647 1721 1731 0
-9372 0
-1800 9373 0
-1813 9373 0
-1845 9373 0
-1881 9373 0
-9373 1845 1794 1795 1851 1791 1881 1936 1841 1825 1876 1912 1908 1890 1931 1929 1811 1892 1877 1930 1852 1861 1835 1798 1902 1847 1849 1875 1858 1824 1863 1866 1868 1886 1871 1818 1817 1833 1904 1806 1804 1884 1802 1819 1869 1887 1822 1800 1899 1888 1896 1813 1809 1894 1919 1915 1831 1812 1925 1920 1901 0
-9374 0
-9375 0
-9376 0
-2137 9377 0
-2138 9377 0
-2140 9377 0
-2144 9377 0
-2145 9377 0
-2146 9377 0
-2147 9377 0
-2148 9377 0
-2151 9377 0
-2152 9377 0
-2154 9377 0
-2155 9377 0
-2156 9377 0
-2158 9377 0
-2161 9377 0
-2167 9377 0
-2170 9377 0
-2171 9377 0
-2178 9377 0
-2179 9377 0
-2180 9377 0
-2183 9377 0
-2184 9377 0
-9377 2158 2138 2167 2173 2184 2180 2178 2154 2174 2145 2147 2166 2171 2179 2146 2156 2137 2169 2139 2164 2151 2155 2161 2140 2157 2152 2144 2143 2172 2165 2148 2170 2183 0
-9378 0
-9371 -9369 -9373 0
-9369 -9373 -9377 0
-9371 -9373 -9377 0
9371 9369 9373 9372 9370 9374 9375 9376 9378 0
9373 9377 9369 9370 9374 9375 9376 9372 9378 0
9377 9373 9371 9370 9374 9375 9376 9372 9378 0
-603 9379 0
-611 9379 0
-627 9379 0
-629 9379 0
-635 9379 0
-638 9379 0
-640 9379 0
-646 9379 0
-650 9379 0
-654 9379 0
-656 9379 0
-660 9379 0
-662 9379 0
-695 9379 0
-697 9379 0
-713 9379 0
-715 9379 0
-720 9379 0
-728 9379 0
-730 9379 0
-739 9379 0
-744 9379 0
-9379 695 644 660 596 697 603 715 744 713 656 654 728 633 599 640 665 720 609 646 611 650 605 686 629 662 627 638 730 635 739 0
-9380 0
-1595 9381 0
-1599 9381 0
-1605 9381 0
-1607 9381 0
-1623 9381 0
-1625 9381 0
-1629 9381 0
-1631 9381 0
-1634 9381 0
-1636 9381 0
-1682 9381 0
-1691 9381 0
-1709 9381 0
-1716 9381 0
-1724 9381 0
-1735 9381 0
-9381 1740 1623 1661 1601 1592 1646 1735 1691 1656 1650 1607 1652 1629 1658 1709 1636 1605 1631 1640 1625 1716 1642 1711 1724 1682 1634 1693 1599 1726 1595 0
-9382 0
-1840 9383 0
-1844 9383 0
-1850 9383 0
-1880 9383 0
-1914 9383 0
-9383 1793 1844 1914 1889 1938 1821 1850 1909 1848 1924 1880 1790 1854 1834 1856 1922 1805 1859 1797 1832 1799 1827 1823 1803 1829 1840 1838 1933 1907 1891 0
-9384 0
-2089 9385 0
-2094 9385 0
-2095 9385 0
-2096 9385 0
-2097 9385 0
-2098 9385 0
-2099 9385 0
-2102 9385 0
-2103 9385 0
-2104 9385 0
-2105 9385 0
-2106 9385 0
-2110 9385 0
-2111 9385 0
-2112 9385 0
-2113 9385 0
-2114 9385 0
-2119 9385 0
-2122 9385 0
-2124 9385 0
-2126 9385 0
-2131 9385 0
-2132 9385 0
-2133 9385 0
-9385 2095 2104 2132 2124 2094 2099 2098 2096 2111 2106 2122 2089 2131 2097 2133 2126 2102 2114 2103 2119 2112 2113 2110 2105 0
-9386 0
-9387 0
-9388 0
-9379 -9381 0
-9379 -9383 0
-9379 -9385 0
-9381 -9383 0
-9381 -9385 0
-9385 -9383 0
9381 9379 9383 9385 9380 9384 9382 9386 9387 9388 0
-1 9389 0
-10 9389 0
-18 9389 0
-20 9389 0
-43 9389 0
-100 9389 0
-139 9389 0
-351 9391 0
-354 9391 0
-360 9391 0
9391 -362 0
-364 9391 0
-367 9391 0
-382 9391 0
-384 9391 0
-1227 9393 0
-1228 9393 0
-1237 9393 0
-1238 9393 0
-1256 9393 0
-1257 9393 0
-1279 9393 0
-1280 9393 0
-1288 9393 0
-1289 9393 0
-1294 9393 0
-1295 9393 0
-1324 9393 0
-1334 9393 0
9395 -1347 0
-1348 9395 0
9395 -1351 0
-1356 9395 0
9395 -1358 0
-1369 9395 0
-1371 9395 0
-1375 9395 0
9395 -1378 0
-1402 9397 0
-1410 9397 0
-1426 9397 0
-1435 9397 0
-1455 9397 0
-1478 9397 0
-1486 9397 0
-1492 9397 0
-1521 9397 0
-1522 9397 0
-1531 9397 0
-1532 9397 0
-9389 -9391 0
-9393 -9389 0
-9389 -9395 0
-9397 -9389 0
-14 9399 0
-37 9399 0
-47 9399 0
-56 9399 0
-91 9399 0
-148 9399 0
9401 -350 0
9401 -365 0
9401 -373 0
9401 -374 0
9401 -379 0
9405 -1388 0
-9399 -9405 -9401 0
-22 9409 0
-42 9409 0
-68 9409 0
-69 9409 0
-135 9409 0
-136 9409 0
-144 9409 0
-146 9409 0
9411 -352 0
9411 -372 0
9411 -381 0
9415 -1352 0
9415 -1381 0
9415 -1383 0
-1469 9417 0
-1471 9417 0
-1479 9417 0
-1480 9417 0
-1502 9417 0
-9417 1463 1518 1537 1418 1507 1491 1468 1461 1397 1542 1443 1504 1422 1527 1490 1479 1523 1484 1437 1408 1421 1415 1526 1480 1533 1474 1489 1502 1538 1458 1404 1524 1509 1416 1476 1513 1536 1534 1528 1395 1460 1444 1514 1414 1501 1520 1449 1431 1433 1434 1494 1466 1469 1471 1453 1499 1428 1442 1512 1482 0
-9409 -9411 -9415 0
-3 9419 0
-7 9419 0
-13 9419 0
-22 9419 0
-38 9419 0
-39 9419 0
-48 9419 0
-54 9419 0
-104 9419 0
-120 9419 0
-123 9419 0
-144 9419 0
-147 9419 0
9421 -352 0
9421 -353 0
9421 -372 0
9421 -381 0
9421 -393 0
9421 -394 0
-1197 9423 0
9425 -1352 0
9425 -1353 0
9425 -1379 0
9425 -1383 0
-1395 9427 0
-1399 9427 0
-1400 9427 0
-1405 9427 0
-1406 9427 0
-1424 9427 0
-1430 9427 0
-1431 9427 0
-1437 9427 0
-1439 9427 0
-1440 9427 0
-1445 9427 0
-1446 9427 0
9427 -1450 0
-1451 9427 0
-1456 9427 0
-1463 9427 0
-1471 9427 0
-1482 9427 0
-1494 9427 0
-1504 9427 0
-1512 9427 0
-1515 9427 0
-1516 9427 0
-9427 1395 1509 1437 1408 1529 1468 1431 1446 1469 1540 1542 1405 1501 1504 1445 1474 1423 1516 1471 1449 1451 1428 1520 1453 1397 1536 1484 1456 1496 1497 1489 1450 1515 1457 1400 1476 1502 1507 1466 1530 1526 1499 1399 1424 1404 1414 1494 1512 1439 1429 1482 1463 1430 1406 1518 1458 1440 1418 1539 1442 0
-9419 -9421 -9425 0
-9423 -9421 -9425 0
-9427 -9423 -9425 0
-1 9429 0
-6 9429 0
-23 9429 0
-24 9429 0
-29 9429 0
-30 9429 0
-42 9429 0
-51 9429 0
-55 9429 0
-69 9429 0
-70 9429 0
-87 9429 0
-88 9429 0
-99 9429 0
-122 9429 0
-131 9429 0
-135 9429 0
-141 9429 0
-142 9429 0
-356 9431 0
-357 9431 0
-386 9431 0
-387 9431 0
-389 9431 0
-390 9431 0
-1262 9433 0
-1263 9433 0
-1281 9433 0
-1282 9433 0
-1292 9433 0
-1293 9433 0
-1315 9433 0
-1316 9433 0
-1326 9433 0
-1329 9433 0
-1330 9433 0
-1335 9433 0
-1336 9433 0
-1339 9433 0
9435 -1347 0
-1365 9435 0
9435 -1368 0
-1373 9435 0
-1374 9435 0
9435 -1381 0
9435 -1384 0
-1434 9437 0
-1443 9437 0
-1460 9437 0
-1461 9437 0
-1479 9437 0
-1480 9437 0
-1491 9437 0
-1514 9437 0
-1523 9437 0
-1524 9437 0
-1527 9437 0
-1528 9437 0
-1533 9437 0
-1534 9437 0
-1537 9437 0
-1538 9437 0
-9429 -9431 0
-9433 -9429 0
-9429 -9435 0
-9437 -9429 0
-9431 -9435 0
-20 9439 0
-56 9439 0
9439 -139 0
9441 -354 0
9441 -364 0
9441 -365 0
9445 -1388 0
-1394 9447 0
-1396 9447 0
-1401 9447 0
-1402 9447 0
-1403 9447 0
-1407 9447 0
-1409 9447 0
-1410 9447 0
-1411 9447 0
-1412 9447 0
-1413 9447 0
-1417 9447 0
-1419 9447 0
-1420 9447 0
-1425 9447 0
-1426 9447 0
-1427 9447 0
-1432 9447 0
-1435 9447 0
-1441 9447 0
-1448 9447 0
-1452 9447 0
-1454 9447 0
-1455 9447 0
-1459 9447 0
-1464 9447 0
-1465 9447 0
-1467 9447 0
-1473 9447 0
-1475 9447 0
-1477 9447 0
-1478 9447 0
-1481 9447 0
-1483 9447 0
-1486 9447 0
-1487 9447 0
-1488 9447 0
-1492 9447 0
-1493 9447 0
-1495 9447 0
-1500 9447 0
-1503 9447 0
-1505 9447 0
-1506 9447 0
-1511 9447 0
-1519 9447 0
-1521 9447 0
-1522 9447 0
-1541 9447 0
-9447 1394 1498 1448 1531 1506 1464 1492 1475 1472 1503 1505 1519 1541 1411 1478 1470 1500 1427 1396 1522 1487 1508 1420 1521 1493 1403 1473 1425 1455 1409 1452 1436 1454 1432 1483 1426 1413 1477 1517 1419 1495 1438 1467 1535 1511 1441 1417 1465 1459 1412 1481 1410 1402 1486 1407 1532 1525 1488 1435 1401 0
-9439 -9441 -9445 0
-11 9449 0
-24 9449 0
-25 9449 0
-56 9449 0
-67 9449 0
-73 9449 0
-89 9449 0
-96 9449 0
-103 9449 0
9449 -113 0
-127 9449 0
9449 -133 0
9449 -142 0
9451 -365 0
9451 -375 0
9451 -390 0
9455 -1365 0
9455 -1367 0
9455 -1388 0
-9455 1389 1350 1370 1384 1368 1376 1377 1381 1366 1367 1386 1387 1357 1365 1373 1385 1374 1349 1388 0
-9451 -9449 -9455 0
-5 9459 0
-12 9459 0
-18 9459 0
-19 9459 0
-20 9459 0
-22 9459 0
-26 9459 0
-28 9459 0
9459 -33 0
-39 9459 0
-43 9459 0
-62 9459 0
-71 9459 0
-82 9459 0
-84 9459 0
-85 9459 0
-90 9459 0
-94 9459 0
-95 9459 0
-97 9459 0
-102 9459 0
-107 9459 0
-110 9459 0
-128 9459 0
-129 9459 0
9459 -130 0
9459 -139 0
-140 9459 0
-144 9459 0
9459 -150 0
9461 -352 0
9461 -353 0
9461 -372 0
9461 -381 0
9461 -394 0
9465 -1352 0
9465 -1353 0
9465 -1383 0
9467 -1395 0
-1408 9467 0
9467 -1431 0
-9467 1395 1509 1468 1504 1437 1401 1478 1397 1408 1487 1492 1463 1474 1455 1489 1431 1404 1521 1542 1499 1526 1454 1507 1477 1520 1501 1428 1409 1536 1402 1420 1476 1418 1512 1518 1412 1469 1425 1471 1419 1449 1482 1411 1522 1458 1435 1531 1466 1494 1414 1453 1486 1502 1484 1426 1493 1436 1532 1442 1410 0
-9459 -9461 -9465 0
-1 9469 0
-6 9469 0
-7 9469 0
-8 9469 0
-13 9469 0
-14 9469 0
-37 9469 0
-38 9469 0
-47 9469 0
-48 9469 0
-53 9469 0
-54 9469 0
-64 9469 0
-70 9469 0
-93 9469 0
-104 9469 0
-105 9469 0
-118 9469 0
-123 9469 0
-124 9469 0
-137 9469 0
-147 9469 0
-148 9469 0
-355 9471 0
-358 9471 0
-359 9471 0
-376 9471 0
-379 9471 0
-388 9471 0
-393 9471 0
-396 9471 0
-1200 9473 0
-1208 9473 0
-1225 9473 0
-1226 9473 0
-1231 9473 0
-1232 9473 0
-1241 9473 0
-1242 9473 0
-1248 9473 0
-1249 9473 0
-1252 9473 0
-1253 9473 0
-1258 9473 0
-1259 9473 0
-1264 9473 0
-1287 9473 0
-1298 9473 0
-1299 9473 0
-1312 9473 0
-1317 9473 0
-1318 9473 0
-1331 9473 0
-1332 9473 0
-1341 9473 0
-1345 9475 0
-1346 9475 0
9475 -1347 0
-1354 9475 0
-1355 9475 0
-1360 9475 0
-1361 9475 0
-1362 9475 0
-1447 9477 0
9477 -1450 0
-1451 9477 0
-1456 9477 0
-1457 9477 0
-1462 9477 0
-1485 9477 0
-1496 9477 0
-1497 9477 0
-1510 9477 0
-1515 9477 0
-1516 9477 0
-1529 9477 0
-1530 9477 0
-1539 9477 0
-1540 9477 0
-9469 -9471 0
-9473 -9469 0
-9469 -9475 0
-9477 -9469 0
-9471 -9475 0
-199 9479 0
-204 9479 0
-207 9479 0
-208 9479 0
-215 9479 0
-216 9479 0
-217 9479 0
-218 9479 0
-225 9479 0
-226 9479 0
-231 9479 0
-232 9479 0
-241 9479 0
-242 9479 0
-253 9479 0
-260 9479 0
-261 9479 0
-268 9479 0
-283 9479 0
-284 9479 0
-291 9479 0
-292 9479 0
-293 9479 0
-298 9479 0
-299 9479 0
-327 9479 0
-328 9479 0
-337 9479 0
-338 9479 0
-9479 284 291 298 218 299 328 268 327 292 207 283 316 338 337 208 293 215 261 226 253 204 225 217 260 242 232 216 231 241 199 0
-9480 0
-595 9481 0
-600 9481 0
-603 9481 0
-604 9481 0
-611 9481 0
-612 9481 0
-613 9481 0
-614 9481 0
-621 9481 0
-622 9481 0
-627 9481 0
-628 9481 0
-637 9481 0
-638 9481 0
-649 9481 0
-656 9481 0
-657 9481 0
-664 9481 0
-679 9481 0
-680 9481 0
-687 9481 0
-688 9481 0
-689 9481 0
-694 9481 0
-695 9481 0
-712 9481 0
-723 9481 0
-724 9481 0
-733 9481 0
-734 9481 0
-9481 613 649 687 688 622 695 656 664 612 724 603 637 595 734 679 600 689 628 611 638 621 723 604 694 627 680 712 657 733 614 0
-9482 0
-1050 9483 0
-1053 9483 0
-1054 9483 0
-1061 9483 0
-1062 9483 0
-1063 9483 0
-1064 9483 0
-1071 9483 0
-1072 9483 0
-1077 9483 0
-1078 9483 0
-1087 9483 0
-1088 9483 0
-1099 9483 0
-1106 9483 0
-1107 9483 0
-1129 9483 0
-1130 9483 0
-1137 9483 0
-1138 9483 0
-1139 9483 0
-1144 9483 0
-1145 9483 0
-1162 9483 0
-1173 9483 0
-1174 9483 0
-1183 9483 0
-1184 9483 0
-9483 1183 1061 1072 1137 1144 1088 1045 1063 1129 1145 1107 1077 1071 1087 1053 1054 1130 1138 1062 1139 1099 1162 1114 1173 1050 1174 1064 1184 1078 1106 0
-9484 0
-1591 9485 0
-1596 9485 0
-1599 9485 0
-1600 9485 0
-1607 9485 0
-1608 9485 0
-1609 9485 0
-1610 9485 0
-1617 9485 0
-1618 9485 0
-1624 9485 0
-1633 9485 0
-1634 9485 0
-1652 9485 0
-1653 9485 0
-1660 9485 0
-1675 9485 0
-1676 9485 0
-1683 9485 0
-1684 9485 0
-1685 9485 0
-1690 9485 0
-1691 9485 0
-1708 9485 0
-1719 9485 0
-1720 9485 0
-1729 9485 0
-1730 9485 0
-9485 1645 1600 1633 1660 1634 1623 1690 1608 1691 1652 1653 1618 1683 1675 1685 1684 1719 1730 1720 1607 1617 1624 1676 1591 1729 1596 1599 1708 1609 1610 0
-9486 0
-1797 9487 0
-1798 9487 0
-1807 9487 0
-1815 9487 0
-1816 9487 0
-1821 9487 0
-1831 9487 0
-1832 9487 0
-1843 9487 0
-1850 9487 0
-1873 9487 0
-1874 9487 0
-1881 9487 0
-1882 9487 0
-1888 9487 0
-1889 9487 0
-1918 9487 0
-1928 9487 0
-9487 1882 1794 1822 1850 1883 1881 1889 1888 1832 1789 1851 1831 1906 1806 1928 1874 1873 1798 1797 1858 1816 1927 1815 1821 1808 1917 1843 1807 1805 1918 0
-9488 0
-9479 -9481 0
-9483 -9479 0
-9479 -9485 0
-9479 -9487 0
-9483 -9481 0
-9481 -9485 0
-9481 -9487 0
-9483 -9485 0
-9483 -9487 0
-9485 -9487 0
9479 9481 9483 9485 9487 9484 9482 9486 9480 9488 0
-200 9489 0
-202 9489 0
-205 9489 0
-212 9489 0
-219 9489 0
-229 9489 0
-230 9489 0
-236 9489 0
-238 9489 0
-244 9489 0
-246 9489 0
-252 9489 0
-256 9489 0
-257 9489 0
-262 9489 0
9489 -271 0
9489 -278 0
-302 9489 0
-303 9489 0
-304 9489 0
-312 9489 0
-322 9489 0
-335 9489 0
-336 9489 0
-341 9489 0
-346 9489 0
-9489 223 278 271 247 236 335 346 206 212 230 341 325 302 254 200 251 312 245 246 211 213 287 257 256 205 258 304 263 265 270 244 233 276 219 229 281 289 294 301 209 303 279 306 252 311 273 314 317 321 322 323 202 331 235 336 309 345 238 347 262 0
-626 9491 0
-642 9491 0
-652 9491 0
-653 9491 0
9491 -667 0
-669 9491 0
9491 -672 0
-674 9491 0
-698 9491 0
-699 9491 0
-700 9491 0
-705 9491 0
-708 9491 0
-731 9491 0
-741 9491 0
-742 9491 0
9493 -1051 0
-1052 9493 0
9493 -1055 0
-1057 9493 0
-1075 9493 0
-1076 9493 0
-1081 9493 0
-1082 9493 0
-1097 9493 0
9493 -1100 0
9493 -1102 0
9493 -1103 0
9493 -1108 0
-1109 9493 0
9493 -1116 0
9493 -1124 0
9493 -1148 0
9493 -1157 0
9493 -1158 0
9493 -1163 0
9493 -1167 0
-1181 9493 0
9493 -1187 0
9495 -1594 0
-1597 9495 0
-1621 9495 0
-1639 9495 0
-1654 9495 0
9495 -1670 0
-1694 9495 0
9495 -1696 0
9495 -1703 0
-1704 9495 0
-1709 9495 0
-1713 9495 0
-1717 9495 0
-1727 9495 0
-1795 9497 0
-1799 9497 0
-1813 9497 0
-1837 9497 0
9497 -1844 0
-1852 9497 0
9497 -1879 0
-1899 9497 0
-9497 1879 1801 1792 1790 1868 1813 1837 1855 1911 1860 1844 1799 1846 1852 1893 1892 1912 1921 1925 1926 1842 1802 1803 1795 1847 1853 1819 1796 1809 1848 1861 1863 1866 1877 1841 1871 1820 1823 1884 1891 1825 1826 1894 1896 1899 1901 1902 1904 1907 1828 1834 1913 1915 1835 1836 1869 1931 1935 1936 1937 0
-9491 -9497 -9489 0
-9495 -9493 -9489 0
-9493 -9497 -9489 0
-9495 -9497 -9489 0
-9495 -9493 -9491 0
-9493 -9491 -9497 0
-9495 -9491 -9497 0
-9495 -9493 -9497 0
-201 9499 0
-203 9499 0
-214 9499 0
-220 9499 0
-221 9499 0
-228 9499 0
-240 9499 0
-243 9499 0
-249 9499 0
-267 9499 0
-272 9499 0
-277 9499 0
-285 9499 0
-286 9499 0
-296 9499 0
-305 9499 0
-313 9499 0
-318 9499 0
-329 9499 0
-340 9499 0
-342 9499 0
-348 9499 0
-9499 201 221 214 290 222 313 330 285 255 339 228 234 243 239 250 249 300 348 266 297 267 305 240 210 275 237 259 264 224 286 288 220 295 248 277 227 282 272 307 280 203 310 274 296 319 315 320 324 318 326 329 334 308 332 342 343 333 340 344 269 0
-9500 0
-597 9501 0
-636 9501 0
-645 9501 0
-662 9501 0
-668 9501 0
-670 9501 0
-671 9501 0
-673 9501 0
-678 9501 0
-701 9501 0
-703 9501 0
-709 9501 0
-711 9501 0
-716 9501 0
-725 9501 0
-736 9501 0
-9501 709 673 729 671 714 676 736 665 670 703 620 636 738 678 599 623 744 682 681 684 686 606 624 725 691 735 633 701 616 663 617 651 618 646 668 644 706 716 739 722 635 660 662 597 692 715 693 720 696 645 726 639 704 728 610 630 711 730 740 655 0
-9502 0
-1074 9503 0
-1083 9503 0
-1085 9503 0
-1089 9503 0
-1095 9503 0
-1112 9503 0
-1115 9503 0
-1121 9503 0
-1123 9503 0
-1126 9503 0
-1131 9503 0
-1136 9503 0
-1146 9503 0
-1154 9503 0
-1156 9503 0
-1159 9503 0
-1164 9503 0
-1166 9503 0
-1176 9503 0
-1179 9503 0
-1185 9503 0
-1190 9503 0
-9503 1131 1047 1067 1120 1049 1066 1189 1190 1146 1156 1073 1132 1083 1134 1136 1121 1095 1126 1118 1142 1166 1068 1164 1086 1101 1113 1143 1128 1060 1165 1123 1159 1172 1115 1151 1141 1074 1185 1188 1105 1080 1154 1110 1153 1094 1085 1161 1112 1170 1070 1089 1194 1180 1175 1179 1176 1096 1186 1056 1178 0
-9504 0
-1620 9505 0
-1631 9505 0
-1641 9505 0
-1658 9505 0
-1669 9505 0
-1677 9505 0
-1702 9505 0
-1705 9505 0
-1710 9505 0
-1712 9505 0
-1722 9505 0
-1735 9505 0
-9505 1688 1680 1697 1705 1711 1612 1651 1692 1740 1677 1678 1722 1614 1602 1699 1672 1629 1616 1658 1595 1724 1626 1712 1641 1613 1631 1656 1682 1666 1718 1664 1620 1674 1642 1702 1726 1700 1635 1632 1606 1640 1710 1593 1661 1687 1725 1721 1732 1707 1689 1716 1667 1735 1669 1659 1736 1647 1731 1734 1619 0
-9506 0
-1845 9507 0
-1880 9507 0
-1909 9507 0
-9507 1791 1811 1900 1845 1886 1793 1903 1934 1865 1890 1876 1838 1938 1824 1932 1849 1887 1878 1897 1914 1810 1804 1929 1800 1814 1859 1840 1864 1933 1867 1910 1854 1857 1830 1923 1818 1924 1839 1895 1833 1829 1862 1875 1898 1870 1872 1856 1817 1909 1885 1919 1880 1827 1812 1905 1922 1930 1908 1916 1920 0
-9508 0
-9501 -9499 -9507 0
-9503 -9499 -9507 0
-9499 -9505 -9507 0
-9501 -9503 -9507 0
-9501 -9505 -9507 0
-9503 -9505 -9507 0
9501 9499 9503 9507 9500 9504 9506 9502 9508 0
9501 9505 9499 9507 9504 9500 9506 9502 9508 0
9505 9503 9499 9507 9504 9502 9506 9500 9508 0
9501 9505 9503 9507 9504 9502 9506 9500 9508 0
-229 9509 0
-230 9509 0
-245 9509 0
-256 9509 0
-303 9509 0
-305 9509 0
-335 9509 0
-336 9509 0
-345 9509 0
-9509 201 206 269 212 280 262 245 346 229 236 259 302 234 243 214 246 210 211 263 335 255 257 300 256 248 318 305 235 272 251 252 308 203 264 282 288 220 295 313 205 303 290 307 324 310 275 315 237 224 322 321 326 332 230 336 348 345 274 342 277 0
-9510 0
-625 9511 0
-626 9511 0
-641 9511 0
-642 9511 0
-652 9511 0
-678 9511 0
-699 9511 0
-731 9511 0
-732 9511 0
-741 9511 0
-742 9511 0
-9511 599 602 722 642 673 732 744 678 709 633 671 738 701 670 632 660 704 641 659 686 651 698 616 714 711 653 626 644 676 647 607 699 648 630 606 610 718 668 658 684 728 703 731 625 665 620 696 706 652 717 691 720 597 608 655 741 639 631 601 742 0
-9512 0
-1047 9513 0
-1049 9513 0
-1052 9513 0
-1056 9513 0
-1058 9513 0
-1060 9513 0
-1066 9513 0
-1070 9513 0
-1076 9513 0
-1080 9513 0
-1082 9513 0
-1083 9513 0
-1089 9513 0
-1092 9513 0
-1094 9513 0
-1098 9513 0
-1101 9513 0
-1103 9513 0
-1105 9513 0
-1109 9513 0
-1115 9513 0
-1118 9513 0
-1120 9513 0
-1121 9513 0
-1123 9513 0
-1126 9513 0
-1128 9513 0
-1134 9513 0
-1136 9513 0
-1141 9513 0
-1146 9513 0
-1149 9513 0
-1151 9513 0
-1153 9513 0
-1154 9513 0
-1156 9513 0
-1159 9513 0
-1161 9513 0
-1164 9513 0
-1168 9513 0
-1170 9513 0
-1172 9513 0
-1178 9513 0
-1182 9513 0
-1188 9513 0
-1192 9513 0
-1194 9513 0
-9513 1098 1047 1091 1123 1110 1049 1156 1168 1126 1149 1081 1148 1070 1060 1136 1075 1080 1108 1188 1172 1134 1066 1092 1097 1109 1164 1058 1128 1115 1052 1120 1121 1083 1102 1151 1118 1103 1101 1141 1178 1146 1167 1194 1154 1153 1105 1056 1082 1094 1159 1161 1170 1057 1076 1181 1182 1051 1089 1191 1192 0
-9514 0
9515 -1621 0
-1622 9515 0
-1649 9515 0
-1655 9515 0
9515 -1695 0
9515 -1705 0
9515 -1710 0
-9515 1651 1593 1667 1697 1655 1724 1661 1692 1680 1656 1695 1622 1627 1635 1649 1740 1612 1694 1705 1628 1621 1734 1672 1640 1737 1606 1699 1687 1728 1638 1597 1666 1602 1616 1637 1714 1674 1647 1604 1626 1702 1598 1629 1669 1716 1664 1718 1707 1595 1682 1713 1654 1648 1603 1727 1644 1738 1700 1643 1710 0
-9516 0
-1845 9517 0
-1880 9517 0
-9517 1791 1845 1938 1825 1854 1903 1849 1893 1793 1908 1847 1935 1841 1911 1853 1846 1852 1900 1819 1838 1885 1824 1859 1810 1932 1892 1878 1912 1826 1914 1862 1925 1865 1936 1864 1872 1820 1870 1895 1842 1922 1827 1867 1897 1800 1890 1898 1814 1835 1833 1796 1836 1880 1801 1804 1802 1905 1795 1916 1926 0
-9518 0
-9509 -9515 -9517 0
-9511 -9515 -9517 0
-9513 -9515 -9517 0
9511 9509 9513 9517 9510 9514 9516 9512 9518 0
-204 9519 0
-221 9519 0
-227 9519 0
-228 9519 0
-239 9519 0
-240 9519 0
-249 9519 0
-250 9519 0
-253 9519 0
-267 9519 0
-268 9519 0
-285 9519 0
-286 9519 0
-296 9519 0
-297 9519 0
-320 9519 0
-329 9519 0
-330 9519 0
-333 9519 0
-334 9519 0
-339 9519 0
-340 9519 0
-343 9519 0
-9519 249 343 296 291 333 199 253 344 334 228 250 320 239 268 340 339 297 286 240 319 316 221 285 222 267 204 330 329 266 227 0
-9520 0
-600 9521 0
-617 9521 0
-618 9521 0
-623 9521 0
-624 9521 0
-635 9521 0
-636 9521 0
-645 9521 0
-646 9521 0
-649 9521 0
-662 9521 0
-663 9521 0
-681 9521 0
-682 9521 0
-692 9521 0
-693 9521 0
-712 9521 0
-715 9521 0
-716 9521 0
-725 9521 0
-726 9521 0
-729 9521 0
-730 9521 0
-735 9521 0
-736 9521 0
-739 9521 0
-740 9521 0
-9521 715 725 664 726 729 736 735 739 649 623 600 716 595 681 645 740 662 618 635 687 682 663 624 693 692 712 636 646 730 617 0
-9522 0
-1067 9523 0
-1068 9523 0
-1073 9523 0
-1074 9523 0
-1085 9523 0
-1086 9523 0
-1095 9523 0
-1096 9523 0
-1099 9523 0
-1112 9523 0
-1113 9523 0
-1131 9523 0
-1132 9523 0
-1137 9523 0
-1142 9523 0
-1143 9523 0
-1165 9523 0
-1166 9523 0
-1175 9523 0
-1176 9523 0
-1179 9523 0
-1180 9523 0
-1185 9523 0
-1186 9523 0
-1189 9523 0
-1190 9523 0
-9523 1137 1045 1113 1085 1142 1162 1112 1067 1068 1099 1073 1179 1190 1185 1189 1175 1143 1165 1176 1131 1166 1132 1095 1114 1086 1186 1074 1050 1180 1096 0
-9524 0
-1591 9525 0
-1596 9525 0
-1613 9525 0
-1614 9525 0
-1620 9525 0
-1631 9525 0
-1632 9525 0
-1642 9525 0
-1645 9525 0
-1659 9525 0
-1660 9525 0
-1683 9525 0
-1688 9525 0
-1689 9525 0
-1708 9525 0
-1711 9525 0
-1712 9525 0
-1721 9525 0
-1722 9525 0
-1726 9525 0
-1731 9525 0
-1732 9525 0
-1735 9525 0
-1736 9525 0
-9525 1688 1660 1614 1591 1645 1711 1689 1642 1708 1641 1677 1678 1725 1721 1596 1722 1683 1726 1659 1732 1658 1731 1735 1620 1712 1613 1632 1631 1736 1619 0
-9526 0
-1789 9527 0
-1794 9527 0
-1811 9527 0
-1812 9527 0
-1817 9527 0
-1818 9527 0
-1830 9527 0
-1839 9527 0
-1840 9527 0
-1843 9527 0
-1856 9527 0
-1857 9527 0
-1875 9527 0
-1876 9527 0
-1881 9527 0
-1886 9527 0
-1887 9527 0
-1909 9527 0
-1910 9527 0
-1920 9527 0
-1923 9527 0
-1924 9527 0
-1933 9527 0
-1934 9527 0
-9527 1933 1794 1830 1881 1887 1811 1789 1829 1886 1843 1906 1858 1923 1839 1876 1857 1920 1909 1840 1930 1817 1818 1812 1924 1875 1919 1934 1929 1910 1856 0
-9528 0
-9519 -9521 0
-9519 -9523 0
-9519 -9525 0
-9519 -9527 0
-9523 -9521 0
-9525 -9521 0
-9521 -9527 0
-9523 -9525 0
-9523 -9527 0
-9525 -9527 0
9519 9521 9523 9525 9527 9524 9522 9526 9520 9528 0
-200 9529 0
-202 9529 0
-207 9529 0
-208 9529 0
-213 9529 0
-216 9529 0
-217 9529 0
-218 9529 0
-219 9529 0
-225 9529 0
-226 9529 0
-231 9529 0
-232 9529 0
-233 9529 0
-238 9529 0
-241 9529 0
-242 9529 0
-244 9529 0
-254 9529 0
-260 9529 0
-270 9529 0
-271 9529 0
-276 9529 0
-278 9529 0
-283 9529 0
-284 9529 0
-292 9529 0
-293 9529 0
-298 9529 0
-301 9529 0
-304 9529 0
-306 9529 0
-311 9529 0
-312 9529 0
-314 9529 0
-317 9529 0
-327 9529 0
-328 9529 0
-331 9529 0
-337 9529 0
-347 9529 0
-9529 225 278 215 271 289 281 247 292 232 218 216 223 347 226 217 209 325 312 298 341 200 213 254 258 238 241 265 244 219 260 276 233 231 338 283 242 287 304 293 294 261 299 301 279 306 284 311 273 314 207 317 208 323 270 328 331 337 309 327 202 0
-9530 0
-598 9531 0
-604 9531 0
-611 9531 0
-612 9531 0
-613 9531 0
-614 9531 0
-615 9531 0
-621 9531 0
-622 9531 0
-627 9531 0
-628 9531 0
-629 9531 0
-634 9531 0
-637 9531 0
-638 9531 0
-640 9531 0
-654 9531 0
-656 9531 0
-657 9531 0
-666 9531 0
-667 9531 0
-669 9531 0
-672 9531 0
-674 9531 0
-675 9531 0
-679 9531 0
-680 9531 0
-685 9531 0
-688 9531 0
-689 9531 0
-694 9531 0
-700 9531 0
-705 9531 0
-707 9531 0
-708 9531 0
-710 9531 0
-713 9531 0
-723 9531 0
-724 9531 0
-733 9531 0
-734 9531 0
-737 9531 0
-9531 622 705 685 721 667 666 609 613 614 737 689 724 695 707 611 612 727 650 661 710 674 708 629 619 621 672 654 680 657 640 628 634 615 679 598 683 669 688 603 694 605 643 697 656 604 700 675 690 713 719 637 723 638 627 733 734 596 743 677 702 0
-9532 0
-1046 9533 0
-1048 9533 0
-1053 9533 0
-1054 9533 0
-1055 9533 0
-1059 9533 0
-1062 9533 0
-1063 9533 0
-1064 9533 0
-1065 9533 0
-1069 9533 0
-1071 9533 0
-1072 9533 0
-1077 9533 0
-1078 9533 0
-1079 9533 0
-1087 9533 0
-1088 9533 0
-1090 9533 0
-1093 9533 0
-1100 9533 0
-1104 9533 0
-1106 9533 0
-1107 9533 0
-1116 9533 0
-1117 9533 0
-1119 9533 0
-1124 9533 0
-1129 9533 0
-1130 9533 0
-1135 9533 0
-1138 9533 0
-1139 9533 0
-1140 9533 0
-1144 9533 0
-1145 9533 0
-1150 9533 0
-1152 9533 0
-1157 9533 0
-1169 9533 0
-1171 9533 0
-1173 9533 0
-1174 9533 0
-1177 9533 0
-1183 9533 0
-1184 9533 0
-1193 9533 0
-9533 1119 1046 1184 1061 1065 1059 1069 1071 1127 1088 1124 1135 1144 1117 1152 1100 1125 1138 1171 1145 1084 1106 1104 1158 1133 1157 1163 1140 1107 1177 1055 1160 1072 1193 1063 1078 1150 1122 1183 1053 1062 1111 1130 1147 1093 1064 1155 1116 1187 1054 1169 1087 1077 1079 1174 1173 1129 1139 1048 1090 0
-9534 0
-1592 9535 0
-1594 9535 0
-1599 9535 0
-1601 9535 0
-1607 9535 0
-1608 9535 0
-1615 9535 0
-1617 9535 0
-1618 9535 0
-1623 9535 0
-1624 9535 0
-1625 9535 0
-1639 9535 0
-1646 9535 0
-1652 9535 0
-1653 9535 0
-1662 9535 0
-1663 9535 0
-1670 9535 0
-1675 9535 0
-1676 9535 0
-1681 9535 0
-1684 9535 0
-1685 9535 0
-1690 9535 0
-1691 9535 0
-1696 9535 0
-1703 9535 0
-1704 9535 0
-1706 9535 0
-1709 9535 0
-1717 9535 0
-9535 1668 1592 1652 1704 1671 1703 1670 1706 1657 1691 1662 1690 1618 1610 1686 1696 1685 1715 1739 1679 1709 1636 1624 1634 1681 1720 1607 1719 1663 1609 1611 1599 1601 1684 1675 1617 1723 1646 1615 1639 1605 1650 1630 1653 1623 1698 1625 1600 1665 1608 1693 1633 1594 1673 1717 1729 1730 1733 1676 1701 0
-9536 0
-1797 9537 0
-1813 9537 0
-1844 9537 0
-1879 9537 0
-9537 1868 1790 1879 1882 1792 1871 1855 1848 1832 1937 1891 1927 1850 1874 1888 1873 1861 1813 1869 1798 1904 1828 1851 1831 1860 1928 1808 1844 1821 1863 1917 1866 1834 1837 1823 1815 1809 1877 1931 1806 1805 1807 1816 1889 1799 1883 1822 1896 1921 1803 1797 1899 1902 1901 1884 1894 1907 1913 1918 1915 0
-9538 0
-9535 -9531 -9529 0
-9531 -9537 -9529 0
-9533 -9535 -9529 0
-9533 -9537 -9529 0
-9535 -9537 -9529 0
-9533 -9535 -9531 0
-9533 -9531 -9537 0
-9531 -9535 -9537 0
-9533 -9535 -9537 0
9533 9529 9535 9537 9534 9532 9536 9530 9538 0
9531 9533 9535 9537 9534 9532 9536 9530 9538 0
-202 9539 0
-219 9539 0
-233 9539 0
-238 9539 0
-239 9539 0
-240 9539 0
-244 9539 0
-247 9539 0
-258 9539 0
-267 9539 0
-270 9539 0
-271 9539 0
-273 9539 0
-276 9539 0
-285 9539 0
-286 9539 0
-289 9539 0
-296 9539 0
-297 9539 0
-309 9539 0
-312 9539 0
-314 9539 0
-320 9539 0
-329 9539 0
-334 9539 0
-339 9539 0
-340 9539 0
-341 9539 0
-343 9539 0
-9539 221 329 271 278 341 240 270 228 347 223 340 244 247 325 239 267 266 339 285 258 265 281 238 254 250 233 276 304 312 287 200 227 289 294 296 286 301 279 306 309 311 273 314 219 317 319 320 222 323 213 249 331 333 209 330 334 297 343 344 202 0
-9540 0
-598 9541 0
-617 9541 0
-636 9541 0
-645 9541 0
-663 9541 0
-667 9541 0
-672 9541 0
-681 9541 0
-682 9541 0
-692 9541 0
-700 9541 0
-708 9541 0
-710 9541 0
-716 9541 0
9541 -726 0
-739 9541 0
-9542 0
-1048 9543 0
-1067 9543 0
-1073 9543 0
-1084 9543 0
-1086 9543 0
-1095 9543 0
-1096 9543 0
-1100 9543 0
-1111 9543 0
-1112 9543 0
-1113 9543 0
-1116 9543 0
-1117 9543 0
-1122 9543 0
-1124 9543 0
-1125 9543 0
-1131 9543 0
-1132 9543 0
-1135 9543 0
-1142 9543 0
-1147 9543 0
-1155 9543 0
-1157 9543 0
-1158 9543 0
-1163 9543 0
-1165 9543 0
-1175 9543 0
-1179 9543 0
-1180 9543 0
-1186 9543 0
-1189 9543 0
-9543 1124 1046 1067 1055 1065 1119 1127 1069 1143 1150 1112 1135 1117 1113 1104 1175 1155 1140 1133 1165 1166 1160 1122 1163 1059 1085 1068 1093 1084 1100 1131 1152 1157 1111 1171 1185 1095 1147 1187 1074 1096 1186 1177 1190 1116 1125 1079 1158 1090 1193 1073 1169 1142 1086 1132 1189 1179 1180 1176 1048 0
-9544 0
-1594 9545 0
-1601 9545 0
-1614 9545 0
-1619 9545 0
-1620 9545 0
-1646 9545 0
-1658 9545 0
-1662 9545 0
-1670 9545 0
-1688 9545 0
-1689 9545 0
-1696 9545 0
-1703 9545 0
-1704 9545 0
-1709 9545 0
-1711 9545 0
-9545 1688 1668 1670 1619 1696 1673 1658 1681 1693 1703 1671 1678 1706 1657 1712 1659 1721 1726 1594 1686 1663 1704 1732 1620 1611 1735 1711 1665 1605 1642 1592 1698 1723 1641 1639 1631 1630 1689 1632 1679 1646 1739 1736 1722 1715 1614 1677 1717 1650 1636 1601 1662 1725 1731 1625 1733 1613 1709 1615 1701 0
-9546 0
-1813 9547 0
-1844 9547 0
-1879 9547 0
-9547 1879 1855 1823 1857 1809 1792 1868 1899 1937 1790 1886 1844 1887 1934 1856 1803 1875 1910 1933 1839 1876 1799 1871 1840 1860 1848 1813 1861 1863 1877 1930 1866 1829 1830 1931 1869 1837 1891 1894 1896 1828 1901 1818 1884 1902 1834 1811 1913 1909 1907 1904 1817 1812 1915 1923 1920 1924 1921 1929 1919 0
-9548 0
-9547 -9541 -9539 0
-9543 -9545 -9539 0
-9543 -9547 -9539 0
-9545 -9547 -9539 0
-9543 -9545 -9541 0
-9543 -9547 -9541 0
-9545 -9547 -9541 0
-9543 -9545 -9547 0
9539 9543 9545 9547 9544 9542 9546 9540 9548 0
-201 9549 0
-203 9549 0
-208 9549 0
-214 9549 0
-217 9549 0
-225 9549 0
-232 9549 0
-242 9549 0
-243 9549 0
-259 9549 0
-269 9549 0
-277 9549 0
-284 9549 0
-290 9549 0
-293 9549 0
-299 9549 0
-305 9549 0
-313 9549 0
-327 9549 0
-338 9549 0
-342 9549 0
-348 9549 0
-9549 201 225 327 298 259 243 214 264 218 217 348 300 210 255 242 237 260 272 226 231 313 248 241 290 261 234 215 277 274 275 308 207 293 283 284 208 216 292 324 280 282 299 232 305 295 224 307 220 315 203 288 326 310 318 332 337 328 342 338 269 0
-9550 0
-597 9551 0
-599 9551 0
-604 9551 0
-606 9551 0
-610 9551 0
-612 9551 0
-613 9551 0
-614 9551 0
-616 9551 0
-620 9551 0
-621 9551 0
-622 9551 0
-627 9551 0
-628 9551 0
-630 9551 0
-633 9551 0
-637 9551 0
-639 9551 0
-644 9551 0
-651 9551 0
-655 9551 0
-660 9551 0
-665 9551 0
-668 9551 0
-670 9551 0
-671 9551 0
-673 9551 0
-676 9551 0
-678 9551 0
-684 9551 0
-686 9551 0
-691 9551 0
-696 9551 0
-701 9551 0
-703 9551 0
-704 9551 0
-706 9551 0
-709 9551 0
-711 9551 0
-714 9551 0
-720 9551 0
-722 9551 0
-723 9551 0
-728 9551 0
-734 9551 0
-738 9551 0
-744 9551 0
-9551 613 622 673 637 691 671 722 597 633 686 621 630 612 689 738 694 734 599 701 706 627 603 678 744 665 688 639 696 704 651 709 695 611 668 711 680 628 616 724 604 606 644 660 684 676 657 638 670 614 679 610 720 620 723 703 655 733 714 656 728 0
-9552 0
-1047 9553 0
-1049 9553 0
-1053 9553 0
-1056 9553 0
-1060 9553 0
-1061 9553 0
-1062 9553 0
-1063 9553 0
-1066 9553 0
-1070 9553 0
-1071 9553 0
-1077 9553 0
-1083 9553 0
-1087 9553 0
-1088 9553 0
-1089 9553 0
-1094 9553 0
-1101 9553 0
-1105 9553 0
-1106 9553 0
-1107 9553 0
-1115 9553 0
-1118 9553 0
-1120 9553 0
-1121 9553 0
-1123 9553 0
-1126 9553 0
-1128 9553 0
-1129 9553 0
-1134 9553 0
-1136 9553 0
-1138 9553 0
-1141 9553 0
-1144 9553 0
-1145 9553 0
-1146 9553 0
-1153 9553 0
-1154 9553 0
-1156 9553 0
-1159 9553 0
-1161 9553 0
-1164 9553 0
-1170 9553 0
-1172 9553 0
-1173 9553 0
-1178 9553 0
-1183 9553 0
-1188 9553 0
-1194 9553 0
-9553 1120 1049 1072 1061 1184 1106 1063 1188 1164 1047 1130 1126 1144 1083 1121 1183 1060 1107 1172 1138 1087 1101 1136 1110 1115 1129 1128 1078 1066 1053 1123 1088 1071 1194 1146 1056 1077 1062 1139 1159 1094 1178 1151 1145 1105 1118 1080 1154 1156 1153 1161 1170 1173 1064 1141 1070 1174 1089 1134 1054 0
-9554 0
-1593 9555 0
-1595 9555 0
-1599 9555 0
-1617 9555 0
-1618 9555 0
-1652 9555 0
-1661 9555 0
-1669 9555 0
-1672 9555 0
-1675 9555 0
-1682 9555 0
-1684 9555 0
-1690 9555 0
-1697 9555 0
-1702 9555 0
-1705 9555 0
-1710 9555 0
-1719 9555 0
-1720 9555 0
-1734 9555 0
-1740 9555 0
-9555 1697 1656 1651 1652 1593 1699 1705 1691 1684 1680 1682 1692 1635 1740 1634 1653 1669 1629 1676 1661 1608 1719 1595 1700 1602 1724 1716 1690 1607 1623 1702 1672 1667 1617 1626 1718 1633 1666 1710 1600 1606 1616 1674 1687 1599 1647 1675 1664 1734 1707 1612 1640 1609 1720 1624 1618 1685 1729 1610 1730 0
-9556 0
-1845 9557 0
-1880 9557 0
-1914 9557 0
-1922 9557 0
-9557 1793 1845 1791 1889 1903 1849 1908 1873 1888 1900 1880 1831 1808 1914 1851 1918 1850 1905 1824 1797 1938 1878 1872 1800 1838 1832 1928 1859 1862 1822 1865 1867 1882 1864 1814 1932 1827 1833 1874 1883 1815 1806 1816 1821 1895 1897 1898 1854 1810 1805 1807 1798 1870 1927 1885 1804 1917 1916 1922 1890 0
-9558 0
-9549 -9551 -9553 0
-9551 -9549 -9557 0
-9549 -9553 -9555 0
-9553 -9549 -9557 0
-9549 -9555 -9557 0
-9551 -9553 -9555 0
-9551 -9553 -9557 0
-9551 -9555 -9557 0
-9553 -9555 -9557 0
9549 9551 9553 9557 9550 9554 9556 9552 9558 0
9549 9555 9551 9557 9554 9550 9556 9552 9558 0
9555 9551 9553 9557 9554 9552 9556 9550 9558 0
-204 9559 0
-205 9559 0
-212 9559 0
-229 9559 0
-230 9559 0
-236 9559 0
-245 9559 0
-246 9559 0
-251 9559 0
-252 9559 0
-253 9559 0
-256 9559 0
-257 9559 0
-262 9559 0
-291 9559 0
-302 9559 0
-303 9559 0
-316 9559 0
-322 9559 0
-335 9559 0
-336 9559 0
-345 9559 0
-346 9559 0
-9559 229 199 291 252 257 322 346 251 253 335 245 316 302 246 211 256 236 263 205 303 345 235 206 230 268 204 321 212 262 336 0
-9560 0
-601 9561 0
-602 9561 0
-607 9561 0
-608 9561 0
-625 9561 0
-626 9561 0
-632 9561 0
-641 9561 0
-642 9561 0
-648 9561 0
-649 9561 0
-652 9561 0
-653 9561 0
-658 9561 0
-659 9561 0
-664 9561 0
-687 9561 0
-698 9561 0
-699 9561 0
-712 9561 0
-717 9561 0
-718 9561 0
-731 9561 0
-732 9561 0
-741 9561 0
-742 9561 0
-9561 699 742 601 602 732 741 647 664 658 712 595 641 687 649 642 718 631 717 653 607 608 659 626 600 652 698 648 731 625 632 0
-9562 0
-1045 9563 0
-1051 9563 0
-1052 9563 0
-1057 9563 0
-1058 9563 0
-1075 9563 0
-1076 9563 0
-1081 9563 0
-1082 9563 0
-1091 9563 0
-1092 9563 0
-1097 9563 0
-1098 9563 0
-1099 9563 0
-1102 9563 0
-1103 9563 0
-1108 9563 0
-1109 9563 0
-1114 9563 0
-1137 9563 0
-1148 9563 0
-1149 9563 0
-1167 9563 0
-1168 9563 0
-1181 9563 0
-1182 9563 0
-1191 9563 0
-1192 9563 0
-9563 1114 1050 1102 1057 1108 1091 1191 1149 1045 1182 1162 1058 1075 1051 1098 1081 1092 1052 1148 1097 1168 1082 1103 1137 1109 1181 1192 1167 1099 1076 0
-9564 0
-1591 9565 0
-1596 9565 0
-1597 9565 0
-1603 9565 0
-1604 9565 0
-1621 9565 0
-1627 9565 0
-1628 9565 0
-1637 9565 0
-1638 9565 0
-1643 9565 0
-1644 9565 0
-1648 9565 0
-1654 9565 0
-1660 9565 0
-1683 9565 0
-1694 9565 0
-1695 9565 0
-1708 9565 0
-1713 9565 0
-1714 9565 0
-1727 9565 0
-1728 9565 0
-1737 9565 0
-1738 9565 0
-9565 1737 1598 1603 1708 1621 1591 1645 1695 1628 1648 1643 1644 1622 1694 1604 1660 1738 1638 1654 1727 1714 1637 1713 1597 1596 1655 1683 1627 1728 1649 0
-9566 0
-1789 9567 0
-1794 9567 0
-1795 9567 0
-1796 9567 0
-1801 9567 0
-1802 9567 0
-1819 9567 0
-1820 9567 0
-1825 9567 0
-1826 9567 0
-1841 9567 0
-1842 9567 0
-1843 9567 0
-1846 9567 0
-1847 9567 0
-1852 9567 0
-1853 9567 0
-1858 9567 0
-1881 9567 0
-1892 9567 0
-1893 9567 0
-1906 9567 0
-1911 9567 0
-1912 9567 0
-1925 9567 0
-1926 9567 0
-1935 9567 0
-1936 9567 0
-9567 1881 1794 1906 1802 1825 1936 1795 1789 1858 1912 1892 1826 1852 1846 1841 1847 1836 1853 1843 1842 1926 1893 1835 1796 1925 1819 1801 1911 1820 1935 0
-9568 0
-9559 -9561 0
-9559 -9563 0
-9559 -9565 0
-9559 -9567 0
-9561 -9563 0
-9561 -9565 0
-9561 -9567 0
-9563 -9565 0
-9563 -9567 0
-9565 -9567 0
9559 9561 9563 9565 9567 9564 9562 9566 9560 9568 0
-397 9569 0
9569 -402 0
-405 9569 0
-406 9569 0
-413 9569 0
-414 9569 0
-416 9569 0
-423 9569 0
-424 9569 0
-430 9569 0
-451 9569 0
-458 9569 0
-459 9569 0
-466 9569 0
-481 9569 0
-482 9569 0
-489 9569 0
-491 9569 0
9569 -514 0
-525 9569 0
-526 9569 0
-535 9569 0
-536 9569 0
-1545 9573 0
-1548 9573 0
9573 -1558 0
-1561 9573 0
-1582 9573 0
-1743 9575 0
-1744 9575 0
-1747 9575 0
-1756 9575 0
-1771 9575 0
-9575 1756 1747 1754 1765 1767 1744 1743 1774 1771 1752 0
-1944 9577 0
-1958 9577 0
-1965 9577 0
-1966 9577 0
-1971 9577 0
-1972 9577 0
-1981 9577 0
-1982 9577 0
-1993 9577 0
-2023 9577 0
-2024 9577 0
-2032 9577 0
-2056 9577 0
-9573 -9569 0
-9575 -9569 0
-9573 -9575 0
-9573 -9577 0
-9577 -9575 0
-420 9589 0
-426 9589 0
-495 9589 0
-518 9589 0
-528 9589 0
-542 9589 0
-9589 495 453 522 432 422 541 542 408 401 518 473 435 465 446 511 503 527 472 438 399 412 483 516 426 418 448 462 457 467 480 447 484 486 478 493 494 538 498 531 505 506 508 441 464 437 517 425 546 470 475 528 524 488 530 537 532 513 419 420 540 0
-9590 0
-9592 0
-1562 9593 0
-1563 9593 0
-9593 1588 1547 1565 1557 1546 1563 1562 1566 1589 1581 1584 1551 1575 1574 1583 1579 1564 1550 1580 0
-9594 0
-1759 9595 0
-1761 9595 0
-1779 9595 0
-9595 1759 1748 1775 1787 1776 1770 1788 1761 1778 1777 1779 1780 1786 1749 1760 1764 1768 1755 1769 0
-9596 0
-1974 9597 0
-1983 9597 0
-2025 9597 0
-2055 9597 0
-2080 9597 0
-2082 9597 0
-9597 1967 2069 1999 2030 2026 2006 2084 2060 1950 1960 2055 2012 2066 2082 1964 2014 2083 2035 1941 2058 2007 2047 2004 2072 2022 2045 1988 2015 1954 1974 2009 2036 2050 2028 1979 1980 2020 2040 1968 1962 2073 1995 1977 1943 1983 2025 1961 2064 2059 2088 2070 1989 2017 2037 2079 2048 2080 1990 2053 2074 0
-9598 0
-9589 -9593 -9595 0
-9597 -9593 -9595 0
9593 9589 9595 9597 9594 9592 9596 9590 9598 0
-435 9599 0
-441 9599 0
9599 -467 0
9605 -1775 0
-2020 9607 0
9607 -2043 0
-9607 1974 1986 2017 2043 1950 2058 2061 1969 2076 2030 2082 2009 2088 1954 2064 1964 1997 2053 1941 2045 1991 2066 2086 2062 2072 1945 1995 1999 2003 1985 2022 1976 2012 1970 2014 2002 1988 1975 1946 2040 1977 2042 2020 1960 2047 2015 2050 2055 2085 2035 1952 1992 1983 1943 2075 2004 2048 1951 2028 1996 0
-9599 -9607 -9605 0
-464 9609 0
-466 9609 0
-483 9609 0
9609 -514 0
-528 9609 0
-531 9609 0
-537 9609 0
-1551 9613 0
-1582 9613 0
-1583 9613 0
-1584 9613 0
-1743 9615 0
-1756 9615 0
-1761 9615 0
-1764 9615 0
-1777 9615 0
-1780 9615 0
-1944 9617 0
-1993 9617 0
-9613 -9609 0
-9615 -9609 0
-9613 -9615 0
-9617 -9615 0
-398 9619 0
-400 9619 0
-9619 509 469 496 490 398 421 407 529 479 545 463 458 414 439 474 487 416 436 406 440 491 525 442 423 400 459 536 411 485 424 499 471 413 452 481 482 468 477 405 430 492 476 497 429 502 504 507 415 510 512 515 521 535 445 526 431 417 456 523 539 0
-9620 0
-9621 816 800 825 811 787 845 761 753 746 764 754 763 830 772 755 778 759 784 777 877 793 788 748 850 817 804 769 779 806 819 822 824 762 827 829 790 833 835 838 839 765 844 771 847 807 869 852 855 857 858 863 860 840 873 874 871 883 884 887 893 0
-9622 0
-9623 1578 1569 1545 1554 1571 1568 1567 1572 1561 1559 1577 1576 1560 1544 1548 1558 1555 1585 1556 1543 1586 0
-9624 0
-1784 9625 0
-9625 1771 1747 1781 1767 1783 1765 1772 1774 1744 1762 1784 1754 1782 1773 1785 1763 1746 1745 1766 1752 1753 0
-9626 0
-1947 9627 0
-1957 9627 0
-1958 9627 0
-1963 9627 0
-2005 9627 0
-2019 9627 0
-2027 9627 0
9627 -2029 0
-2033 9627 0
9627 -2038 0
9627 -2041 0
-2046 9627 0
-2049 9627 0
-2068 9627 0
-2071 9627 0
-2077 9627 0
-9627 2029 1942 2038 1958 2019 1972 1973 2001 1947 1987 1982 2063 2005 1966 2081 1953 1965 1955 1956 1984 2018 2023 2010 1949 1963 2000 2051 2049 1998 2013 2027 1978 2039 2021 2087 2024 1981 1940 2054 2011 1948 2057 2065 1994 1957 2046 2052 2067 1971 2041 2034 1959 2033 2032 2068 2071 2078 2077 2044 2016 0
-9628 0
-9625 -9627 -9619 0
9619 9621 9623 9625 9620 9624 9622 9626 9628 0
-9633 1580 1560 1568 1569 1584 1544 1567 1571 1585 1555 1577 1583 1586 1551 1550 1559 1572 1543 1581 0
-405 9639 0
-415 9639 0
-480 9639 0
-486 9639 0
-490 9639 0
-496 9639 0
-9639 496 424 503 522 435 453 486 406 413 401 412 430 506 490 525 536 511 513 416 429 418 422 439 488 399 472 457 530 473 432 405 415 459 480 481 478 423 408 482 491 493 516 497 498 462 505 414 508 467 458 440 470 446 475 526 524 535 441 540 546 0
-9640 0
-9642 0
-1561 9643 0
-1562 9643 0
-9643 1579 1565 1557 1574 1546 1589 1562 1575 1561 1558 1566 1547 1554 1548 1545 1588 1576 1578 1563 1564 1556 0
-9644 0
-1748 9645 0
-1759 9645 0
-9645 1771 1747 1775 1759 1787 1788 1778 1768 1744 1786 1774 1749 1748 1752 1779 1760 1754 1765 1767 1755 1776 0
-9646 0
-9647 1958 1955 2030 1972 2053 1954 1995 2066 2055 2017 2022 1999 2038 1950 1960 2078 2001 2039 2048 1965 1966 1941 1988 2068 1943 2000 2064 2033 2015 2014 1981 1956 1948 2023 2012 2024 1971 2028 2004 1947 2050 1957 2067 1982 2045 2040 2047 1983 2035 2020 2058 1964 1977 2032 1974 2072 2077 2009 2082 2088 0
-9648 0
-9639 -9643 -9645 0
9639 9643 9645 9647 9644 9642 9646 9640 9648 0
-403 9649 0
-404 9649 0
-500 9649 0
-501 9649 0
-519 9649 0
-533 9649 0
-534 9649 0
-1549 9653 0
-1570 9653 0
-1573 9653 0
-1582 9653 0
-1587 9653 0
-1590 9653 0
-1741 9655 0
-1742 9655 0
-1743 9655 0
-1756 9655 0
-1757 9655 0
-1758 9655 0
-1996 9657 0
-2085 9657 0
-9653 -9649 0
-9649 -9655 0
-9653 -9655 0
-9657 -9655 0
9659 -157 0
9659 -161 0
9659 -163 0
9659 -166 0
9659 -174 0
9659 -184 0
-547 9661 0
-556 9661 0
-559 9661 0
-564 9661 0
-578 9661 0
-582 9661 0
-586 9661 0
-903 9663 0
-911 9663 0
-913 9663 0
-921 9663 0
-956 9663 0
-957 9663 0
-980 9663 0
9663 -987 0
-988 9663 0
-995 9663 0
-2139 9667 0
-2142 9667 0
-2143 9667 0
-2146 9667 0
-2151 9667 0
-2163 9667 0
-2164 9667 0
-2167 9667 0
-2177 9667 0
-9667 2151 2139 2167 2177 2146 2142 2164 2143 2163 0
-9661 -9659 0
-9663 -9659 0
-9667 -9659 0
-9663 -9661 0
-9667 -9661 0
-9667 -9663 0
-9669 0
-9670 0
-548 9671 0
-551 9671 0
9671 -558 0
-561 9671 0
-9672 0
-909 9673 0
-1008 9673 0
-9673 969 925 905 1007 966 898 950 1008 972 896 999 926 907 931 932 919 940 941 942 943 947 934 901 974 929 954 1013 967 961 909 902 908 975 915 948 977 983 985 990 997 959 1018 952 1002 1005 1000 958 1010 953 1017 998 1019 1021 1027 1031 1032 1037 1041 1042 1043 0
-9674 0
-9675 0
-9676 0
-2147 9677 0
-2169 9677 0
-9677 2178 2141 2149 2158 2156 2154 2150 2184 2147 2148 2162 2166 2172 2176 2174 2180 2161 2173 2168 2153 2175 2145 2181 2144 2170 2159 2155 2137 2152 2171 2138 2140 2179 2169 2165 2182 2160 2157 2183 0
-9678 0
-9677 -9671 -9673 0
9673 9677 9672 9669 9674 9675 9676 9670 9678 0
-9680 0
-9681 0
-9682 0
-9683 1040 920 978 1038 1036 965 930 945 923 897 1044 933 906 982 939 935 910 944 1009 924 917 918 1030 962 992 955 1016 960 970 971 1015 951 984 973 991 993 981 976 986 1003 1004 996 968 1011 963 1001 1014 899 1020 1022 1006 1025 1029 1028 1026 946 936 916 1039 1035 0
-9684 0
-9686 0
-9687 0
-9688 0
9683 9679 9681 9682 9680 9684 9686 9687 9688 0
9685 9683 9682 9680 9684 9681 9686 9687 9688 0
9689 -197 0
9691 -548 0
-2138 9697 0
-2140 9697 0
-2147 9697 0
-2148 9697 0
-2153 9697 0
-2156 9697 0
-2159 9697 0
-2160 9697 0
-2161 9697 0
-2162 9697 0
-2169 9697 0
-2172 9697 0
-2174 9697 0
-2175 9697 0
-2176 9697 0
-2182 9697 0
-2183 9697 0
-2184 9697 0
-9697 2169 2138 2156 2182 2159 2153 2157 2172 2184 2141 2174 2168 2183 2176 2181 2161 2148 2175 2152 2140 2160 2162 2147 2137 0
-9689 -9697 -9691 0
-9699 0
-9700 0
-547 9701 0
-552 9701 0
-553 9701 0
-554 9701 0
-555 9701 0
-556 9701 0
-559 9701 0
-564 9701 0
-565 9701 0
-566 9701 0
-567 9701 0
-569 9701 0
-571 9701 0
-578 9701 0
-579 9701 0
-580 9701 0
-581 9701 0
-582 9701 0
-583 9701 0
-584 9701 0
-585 9701 0
-586 9701 0
-590 9701 0
-591 9701 0
-9701 569 591 554 567 559 579 553 547 583 586 584 564 552 578 566 565 581 580 582 555 571 556 585 590 0
-9702 0
-949 9703 0
-964 9703 0
-9703 962 900 923 945 1030 949 917 1015 1040 895 992 935 924 981 964 1016 993 987 963 982 918 936 1012 1026 1029 1025 1035 946 1036 1039 0
-9704 0
-9705 0
-9706 0
-2139 9707 0
-2142 9707 0
-2143 9707 0
-2144 9707 0
-2146 9707 0
-2151 9707 0
-2154 9707 0
-2155 9707 0
-2158 9707 0
-2163 9707 0
-2164 9707 0
-2165 9707 0
-2167 9707 0
-2170 9707 0
-2171 9707 0
-2173 9707 0
-2177 9707 0
-9707 2177 2139 2173 2158 2149 2166 2154 2179 2163 2170 2151 2178 2165 2144 2145 2180 2150 2143 2167 2146 2171 2164 2155 2142 0
-9708 0
-9701 -9707 0
-9703 -9707 0
9701 9703 9707 9702 9700 9704 9705 9706 9699 9708 0
-9709 194 154 157 159 172 177 175 179 181 171 184 187 176 186 188 185 189 190 191 158 166 161 180 163 173 164 155 174 156 165 193 170 153 0
-9710 0
-9711 0
-9712 0
-9713 969 988 1007 905 966 977 1008 995 1024 913 912 954 914 909 927 898 929 896 985 938 940 943 911 919 937 915 961 974 903 921 972 956 975 922 980 1034 904 967 983 994 950 990 934 928 989 1002 979 1000 957 1010 1013 1019 1021 1023 997 1027 1033 1005 1037 1043 0
-9714 0
-9715 2094 2097 2104 2096 2132 2098 2101 2118 2090 2109 2115 2130 2126 2119 2102 2095 2122 2117 2131 2112 2103 2116 2093 2128 2120 2121 2124 2113 2114 2125 2123 2133 2105 0
-9716 0
-9717 0
-9718 0
9713 9709 9711 9712 9710 9714 9716 9717 9718 0
9715 9713 9712 9710 9714 9711 9716 9717 9718 0
-155 9719 0
-156 9719 0
-158 9719 0
-159 9719 0
-164 9719 0
-165 9719 0
-170 9719 0
-171 9719 0
-172 9719 0
-173 9719 0
-175 9719 0
-176 9719 0
-177 9719 0
-179 9719 0
-180 9719 0
-181 9719 0
-185 9719 0
-186 9719 0
-188 9719 0
-189 9719 0
-190 9719 0
-191 9719 0
-193 9719 0
-194 9719 0
-9719 186 159 171 173 155 177 179 181 176 194 175 170 164 180 188 165 189 191 190 185 158 193 156 172 0
-552 9721 0
-554 9721 0
-555 9721 0
-565 9721 0
-566 9721 0
-567 9721 0
-569 9721 0
-571 9721 0
-580 9721 0
-581 9721 0
-583 9721 0
-584 9721 0
-585 9721 0
-590 9721 0
-591 9721 0
-9721 552 565 571 581 585 567 580 566 584 555 583 591 554 569 590 0
9723 -896 0
9723 -905 0
9723 -909 0
9723 -915 0
9723 -919 0
-950 9723 0
-2096 9725 0
-2097 9725 0
-2103 9725 0
-2104 9725 0
-2112 9725 0
-2113 9725 0
-2114 9725 0
-2115 9725 0
-2117 9725 0
-2119 9725 0
-2120 9725 0
-2122 9725 0
-2125 9725 0
-2126 9725 0
-2128 9725 0
-2130 9725 0
-2131 9725 0
-2132 9725 0
-9725 2124 2097 2120 2119 2096 2128 2133 2103 2132 2113 2098 2104 2126 2115 2116 2117 2125 2130 2131 2112 2122 2123 2095 2114 0
9727 -2144 0
9727 -2145 0
9727 -2150 0
9727 -2154 0
-2155 9727 0
9727 -2158 0
9727 -2165 0
9727 -2166 0
9727 -2170 0
9727 -2173 0
9727 -2179 0
9727 -2180 0
-9723 -9721 -9719 0
-9723 -9727 -9719 0
-9725 -9727 -9719 0
-9723 -9725 -9727 0
-9729 0
-9730 0
-547 9731 0
-548 9731 0
-549 9731 0
-550 9731 0
-551 9731 0
-553 9731 0
-556 9731 0
-557 9731 0
-558 9731 0
-559 9731 0
-560 9731 0
-561 9731 0
-562 9731 0
-563 9731 0
-564 9731 0
-568 9731 0
-570 9731 0
-572 9731 0
-573 9731 0
-574 9731 0
-575 9731 0
-576 9731 0
-577 9731 0
-578 9731 0
-579 9731 0
-582 9731 0
-586 9731 0
-587 9731 0
-588 9731 0
-589 9731 0
-592 9731 0
-593 9731 0
-594 9731 0
-9731 547 561 558 562 589 551 570 588 593 573 548 592 582 559 564 568 577 556 557 574 579 572 578 575 549 587 553 550 576 563 560 594 586 0
-9732 0
-903 9733 0
-913 9733 0
-973 9733 0
-986 9733 0
-9733 920 1014 927 951 979 912 921 914 897 988 989 1009 913 928 903 986 916 933 937 994 939 938 910 944 995 899 1034 906 955 970 968 904 911 978 1001 957 984 976 960 922 991 971 930 996 956 1003 1004 1006 965 1011 973 1020 1022 1023 980 1028 1033 1024 1038 1044 0
-9734 0
-9735 0
-9736 0
-2137 9737 0
-2140 9737 0
-2143 9737 0
-2147 9737 0
-2148 9737 0
-2152 9737 0
-2153 9737 0
-2156 9737 0
-2174 9737 0
-2175 9737 0
-2176 9737 0
-2182 9737 0
-2184 9737 0
-9737 2152 2138 2167 2160 2156 2148 2176 2183 2174 2153 2143 2172 2182 2161 2184 2142 2181 2157 2163 2175 2162 2137 2151 2169 2177 2139 2168 2141 2146 2140 2164 2147 2159 0
-9738 0
-9733 -9731 -9737 0
9733 9731 9729 9732 9730 9734 9735 9736 9738 0
9737 9733 9732 9729 9734 9735 9736 9730 9738 0
-151 9739 0
-152 9739 0
-153 9739 0
-154 9739 0
-157 9739 0
-160 9739 0
-161 9739 0
-162 9739 0
-163 9739 0
-166 9739 0
-167 9739 0
-168 9739 0
-169 9739 0
-174 9739 0
-178 9739 0
-182 9739 0
-183 9739 0
-184 9739 0
-187 9739 0
-192 9739 0
-195 9739 0
-196 9739 0
-197 9739 0
-198 9739 0
-9739 198 154 162 178 151 182 187 184 160 169 163 157 195 183 197 152 153 192 168 196 167 174 161 166 0
-895 9743 0
-900 9743 0
-902 9743 0
-908 9743 0
-925 9743 0
-926 9743 0
-931 9743 0
-932 9743 0
-949 9743 0
-952 9743 0
-953 9743 0
-958 9743 0
-959 9743 0
-964 9743 0
9743 -987 0
-998 9743 0
-999 9743 0
-1012 9743 0
-1017 9743 0
-1018 9743 0
-1032 9743 0
-1042 9743 0
-2089 9745 0
-2090 9745 0
-2091 9745 0
-2092 9745 0
-2093 9745 0
-2094 9745 0
-2099 9745 0
-2100 9745 0
-2101 9745 0
-2102 9745 0
-2105 9745 0
-2106 9745 0
-2107 9745 0
-2109 9745 0
-2110 9745 0
-2111 9745 0
-2118 9745 0
-2121 9745 0
-2127 9745 0
-2129 9745 0
-9745 2129 2111 2102 2099 2089 2094 2092 2093 2127 2101 2108 2105 2134 2121 2090 2110 2106 2118 2135 2100 2107 2109 2136 2091 0
-9743 -9739 0
-9745 -9739 0
-9745 -9743 0
