p cnf 450 2010
1 2 -151 0
-1 -2 -151 0
1 -2 151 0
-1 2 151 0
1 3 -152 0
-1 -3 -152 0
1 -3 152 0
-1 3 152 0
1 4 -153 0
-1 -4 -153 0
1 -4 153 0
-1 4 153 0
1 5 -154 0
-1 -5 -154 0
1 -5 154 0
-1 5 154 0
2 3 -155 0
-2 -3 -155 0
2 -3 155 0
-2 3 155 0
2 4 -156 0
-2 -4 -156 0
2 -4 156 0
-2 4 156 0
2 5 -157 0
-2 -5 -157 0
2 -5 157 0
-2 5 157 0
3 4 -158 0
-3 -4 -158 0
3 -4 158 0
-3 4 158 0
3 5 -159 0
-3 -5 -159 0
3 -5 159 0
-3 5 159 0
4 5 -160 0
-4 -5 -160 0
4 -5 160 0
-4 5 160 0
6 7 -161 0
-6 -7 -161 0
6 -7 161 0
-6 7 161 0
6 8 -162 0
-6 -8 -162 0
6 -8 162 0
-6 8 162 0
6 9 -163 0
-6 -9 -163 0
6 -9 163 0
-6 9 163 0
6 10 -164 0
-6 -10 -164 0
6 -10 164 0
-6 10 164 0
7 8 -165 0
-7 -8 -165 0
7 -8 165 0
-7 8 165 0
7 9 -166 0
-7 -9 -166 0
7 -9 166 0
-7 9 166 0
7 10 -167 0
-7 -10 -167 0
7 -10 167 0
-7 10 167 0
8 9 -168 0
-8 -9 -168 0
8 -9 168 0
-8 9 168 0
8 10 -169 0
-8 -10 -169 0
8 -10 169 0
-8 10 169 0
9 10 -170 0
-9 -10 -170 0
9 -10 170 0
-9 10 170 0
11 12 -171 0
-11 -12 -171 0
11 -12 171 0
-11 12 171 0
11 13 -172 0
-11 -13 -172 0
11 -13 172 0
-11 13 172 0
11 14 -173 0
-11 -14 -173 0
11 -14 173 0
-11 14 173 0
11 15 -174 0
-11 -15 -174 0
11 -15 174 0
-11 15 174 0
12 13 -175 0
-12 -13 -175 0
12 -13 175 0
-12 13 175 0
12 14 -176 0
-12 -14 -176 0
12 -14 176 0
-12 14 176 0
12 15 -177 0
-12 -15 -177 0
12 -15 177 0
-12 15 177 0
13 14 -178 0
-13 -14 -178 0
13 -14 178 0
-13 14 178 0
13 15 -179 0
-13 -15 -179 0
13 -15 179 0
-13 15 179 0
14 15 -180 0
-14 -15 -180 0
14 -15 180 0
-14 15 180 0
16 17 -181 0
-16 -17 -181 0
16 -17 181 0
-16 17 181 0
16 18 -182 0
-16 -18 -182 0
16 -18 182 0
-16 18 182 0
16 19 -183 0
-16 -19 -183 0
16 -19 183 0
-16 19 183 0
16 20 -184 0
-16 -20 -184 0
16 -20 184 0
-16 20 184 0
17 18 -185 0
-17 -18 -185 0
17 -18 185 0
-17 18 185 0
17 19 -186 0
-17 -19 -186 0
17 -19 186 0
-17 19 186 0
17 20 -187 0
-17 -20 -187 0
17 -20 187 0
-17 20 187 0
18 19 -188 0
-18 -19 -188 0
18 -19 188 0
-18 19 188 0
18 20 -189 0
-18 -20 -189 0
18 -20 189 0
-18 20 189 0
19 20 -190 0
-19 -20 -190 0
19 -20 190 0
-19 20 190 0
21 22 -191 0
-21 -22 -191 0
21 -22 191 0
-21 22 191 0
21 23 -192 0
-21 -23 -192 0
21 -23 192 0
-21 23 192 0
21 24 -193 0
-21 -24 -193 0
21 -24 193 0
-21 24 193 0
21 25 -194 0
-21 -25 -194 0
21 -25 194 0
-21 25 194 0
22 23 -195 0
-22 -23 -195 0
22 -23 195 0
-22 23 195 0
22 24 -196 0
-22 -24 -196 0
22 -24 196 0
-22 24 196 0
22 25 -197 0
-22 -25 -197 0
22 -25 197 0
-22 25 197 0
23 24 -198 0
-23 -24 -198 0
23 -24 198 0
-23 24 198 0
23 25 -199 0
-23 -25 -199 0
23 -25 199 0
-23 25 199 0
24 25 -200 0
-24 -25 -200 0
24 -25 200 0
-24 25 200 0
26 27 -201 0
-26 -27 -201 0
26 -27 201 0
-26 27 201 0
26 28 -202 0
-26 -28 -202 0
26 -28 202 0
-26 28 202 0
26 29 -203 0
-26 -29 -203 0
26 -29 203 0
-26 29 203 0
26 30 -204 0
-26 -30 -204 0
26 -30 204 0
-26 30 204 0
27 28 -205 0
-27 -28 -205 0
27 -28 205 0
-27 28 205 0
27 29 -206 0
-27 -29 -206 0
27 -29 206 0
-27 29 206 0
27 30 -207 0
-27 -30 -207 0
27 -30 207 0
-27 30 207 0
28 29 -208 0
-28 -29 -208 0
28 -29 208 0
-28 29 208 0
28 30 -209 0
-28 -30 -209 0
28 -30 209 0
-28 30 209 0
29 30 -210 0
-29 -30 -210 0
29 -30 210 0
-29 30 210 0
31 32 -211 0
-31 -32 -211 0
31 -32 211 0
-31 32 211 0
31 33 -212 0
-31 -33 -212 0
31 -33 212 0
-31 33 212 0
31 34 -213 0
-31 -34 -213 0
31 -34 213 0
-31 34 213 0
31 35 -214 0
-31 -35 -214 0
31 -35 214 0
-31 35 214 0
32 33 -215 0
-32 -33 -215 0
32 -33 215 0
-32 33 215 0
32 34 -216 0
-32 -34 -216 0
32 -34 216 0
-32 34 216 0
32 35 -217 0
-32 -35 -217 0
32 -35 217 0
-32 35 217 0
33 34 -218 0
-33 -34 -218 0
33 -34 218 0
-33 34 218 0
33 35 -219 0
-33 -35 -219 0
33 -35 219 0
-33 35 219 0
34 35 -220 0
-34 -35 -220 0
34 -35 220 0
-34 35 220 0
36 37 -221 0
-36 -37 -221 0
36 -37 221 0
-36 37 221 0
36 38 -222 0
-36 -38 -222 0
36 -38 222 0
-36 38 222 0
36 39 -223 0
-36 -39 -223 0
36 -39 223 0
-36 39 223 0
36 40 -224 0
-36 -40 -224 0
36 -40 224 0
-36 40 224 0
37 38 -225 0
-37 -38 -225 0
37 -38 225 0
-37 38 225 0
37 39 -226 0
-37 -39 -226 0
37 -39 226 0
-37 39 226 0
37 40 -227 0
-37 -40 -227 0
37 -40 227 0
-37 40 227 0
38 39 -228 0
-38 -39 -228 0
38 -39 228 0
-38 39 228 0
38 40 -229 0
-38 -40 -229 0
38 -40 229 0
-38 40 229 0
39 40 -230 0
-39 -40 -230 0
39 -40 230 0
-39 40 230 0
41 42 -231 0
-41 -42 -231 0
41 -42 231 0
-41 42 231 0
41 43 -232 0
-41 -43 -232 0
41 -43 232 0
-41 43 232 0
41 44 -233 0
-41 -44 -233 0
41 -44 233 0
-41 44 233 0
41 45 -234 0
-41 -45 -234 0
41 -45 234 0
-41 45 234 0
42 43 -235 0
-42 -43 -235 0
42 -43 235 0
-42 43 235 0
42 44 -236 0
-42 -44 -236 0
42 -44 236 0
-42 44 236 0
42 45 -237 0
-42 -45 -237 0
42 -45 237 0
-42 45 237 0
43 44 -238 0
-43 -44 -238 0
43 -44 238 0
-43 44 238 0
43 45 -239 0
-43 -45 -239 0
43 -45 239 0
-43 45 239 0
44 45 -240 0
-44 -45 -240 0
44 -45 240 0
-44 45 240 0
46 47 -241 0
-46 -47 -241 0
46 -47 241 0
-46 47 241 0
46 48 -242 0
-46 -48 -242 0
46 -48 242 0
-46 48 242 0
46 49 -243 0
-46 -49 -243 0
46 -49 243 0
-46 49 243 0
46 50 -244 0
-46 -50 -244 0
46 -50 244 0
-46 50 244 0
47 48 -245 0
-47 -48 -245 0
47 -48 245 0
-47 48 245 0
47 49 -246 0
-47 -49 -246 0
47 -49 246 0
-47 49 246 0
47 50 -247 0
-47 -50 -247 0
47 -50 247 0
-47 50 247 0
48 49 -248 0
-48 -49 -248 0
48 -49 248 0
-48 49 248 0
48 50 -249 0
-48 -50 -249 0
48 -50 249 0
-48 50 249 0
49 50 -250 0
-49 -50 -250 0
49 -50 250 0
-49 50 250 0
51 52 -251 0
-51 -52 -251 0
51 -52 251 0
-51 52 251 0
51 53 -252 0
-51 -53 -252 0
51 -53 252 0
-51 53 252 0
51 54 -253 0
-51 -54 -253 0
51 -54 253 0
-51 54 253 0
51 55 -254 0
-51 -55 -254 0
51 -55 254 0
-51 55 254 0
52 53 -255 0
-52 -53 -255 0
52 -53 255 0
-52 53 255 0
52 54 -256 0
-52 -54 -256 0
52 -54 256 0
-52 54 256 0
52 55 -257 0
-52 -55 -257 0
52 -55 257 0
-52 55 257 0
53 54 -258 0
-53 -54 -258 0
53 -54 258 0
-53 54 258 0
53 55 -259 0
-53 -55 -259 0
53 -55 259 0
-53 55 259 0
54 55 -260 0
-54 -55 -260 0
54 -55 260 0
-54 55 260 0
56 57 -261 0
-56 -57 -261 0
56 -57 261 0
-56 57 261 0
56 58 -262 0
-56 -58 -262 0
56 -58 262 0
-56 58 262 0
56 59 -263 0
-56 -59 -263 0
56 -59 263 0
-56 59 263 0
56 60 -264 0
-56 -60 -264 0
56 -60 264 0
-56 60 264 0
57 58 -265 0
-57 -58 -265 0
57 -58 265 0
-57 58 265 0
57 59 -266 0
-57 -59 -266 0
57 -59 266 0
-57 59 266 0
57 60 -267 0
-57 -60 -267 0
57 -60 267 0
-57 60 267 0
58 59 -268 0
-58 -59 -268 0
58 -59 268 0
-58 59 268 0
58 60 -269 0
-58 -60 -269 0
58 -60 269 0
-58 60 269 0
59 60 -270 0
-59 -60 -270 0
59 -60 270 0
-59 60 270 0
61 62 -271 0
-61 -62 -271 0
61 -62 271 0
-61 62 271 0
61 63 -272 0
-61 -63 -272 0
61 -63 272 0
-61 63 272 0
61 64 -273 0
-61 -64 -273 0
61 -64 273 0
-61 64 273 0
61 65 -274 0
-61 -65 -274 0
61 -65 274 0
-61 65 274 0
62 63 -275 0
-62 -63 -275 0
62 -63 275 0
-62 63 275 0
62 64 -276 0
-62 -64 -276 0
62 -64 276 0
-62 64 276 0
62 65 -277 0
-62 -65 -277 0
62 -65 277 0
-62 65 277 0
63 64 -278 0
-63 -64 -278 0
63 -64 278 0
-63 64 278 0
63 65 -279 0
-63 -65 -279 0
63 -65 279 0
-63 65 279 0
64 65 -280 0
-64 -65 -280 0
64 -65 280 0
-64 65 280 0
66 67 -281 0
-66 -67 -281 0
66 -67 281 0
-66 67 281 0
66 68 -282 0
-66 -68 -282 0
66 -68 282 0
-66 68 282 0
66 69 -283 0
-66 -69 -283 0
66 -69 283 0
-66 69 283 0
66 70 -284 0
-66 -70 -284 0
66 -70 284 0
-66 70 284 0
67 68 -285 0
-67 -68 -285 0
67 -68 285 0
-67 68 285 0
67 69 -286 0
-67 -69 -286 0
67 -69 286 0
-67 69 286 0
67 70 -287 0
-67 -70 -287 0
67 -70 287 0
-67 70 287 0
68 69 -288 0
-68 -69 -288 0
68 -69 288 0
-68 69 288 0
68 70 -289 0
-68 -70 -289 0
68 -70 289 0
-68 70 289 0
69 70 -290 0
-69 -70 -290 0
69 -70 290 0
-69 70 290 0
71 72 -291 0
-71 -72 -291 0
71 -72 291 0
-71 72 291 0
71 73 -292 0
-71 -73 -292 0
71 -73 292 0
-71 73 292 0
71 74 -293 0
-71 -74 -293 0
71 -74 293 0
-71 74 293 0
71 75 -294 0
-71 -75 -294 0
71 -75 294 0
-71 75 294 0
72 73 -295 0
-72 -73 -295 0
72 -73 295 0
-72 73 295 0
72 74 -296 0
-72 -74 -296 0
72 -74 296 0
-72 74 296 0
72 75 -297 0
-72 -75 -297 0
72 -75 297 0
-72 75 297 0
73 74 -298 0
-73 -74 -298 0
73 -74 298 0
-73 74 298 0
73 75 -299 0
-73 -75 -299 0
73 -75 299 0
-73 75 299 0
74 75 -300 0
-74 -75 -300 0
74 -75 300 0
-74 75 300 0
76 77 -301 0
-76 -77 -301 0
76 -77 301 0
-76 77 301 0
76 78 -302 0
-76 -78 -302 0
76 -78 302 0
-76 78 302 0
76 79 -303 0
-76 -79 -303 0
76 -79 303 0
-76 79 303 0
76 80 -304 0
-76 -80 -304 0
76 -80 304 0
-76 80 304 0
77 78 -305 0
-77 -78 -305 0
77 -78 305 0
-77 78 305 0
77 79 -306 0
-77 -79 -306 0
77 -79 306 0
-77 79 306 0
77 80 -307 0
-77 -80 -307 0
77 -80 307 0
-77 80 307 0
78 79 -308 0
-78 -79 -308 0
78 -79 308 0
-78 79 308 0
78 80 -309 0
-78 -80 -309 0
78 -80 309 0
-78 80 309 0
79 80 -310 0
-79 -80 -310 0
79 -80 310 0
-79 80 310 0
81 82 -311 0
-81 -82 -311 0
81 -82 311 0
-81 82 311 0
81 83 -312 0
-81 -83 -312 0
81 -83 312 0
-81 83 312 0
81 84 -313 0
-81 -84 -313 0
81 -84 313 0
-81 84 313 0
81 85 -314 0
-81 -85 -314 0
81 -85 314 0
-81 85 314 0
82 83 -315 0
-82 -83 -315 0
82 -83 315 0
-82 83 315 0
82 84 -316 0
-82 -84 -316 0
82 -84 316 0
-82 84 316 0
82 85 -317 0
-82 -85 -317 0
82 -85 317 0
-82 85 317 0
83 84 -318 0
-83 -84 -318 0
83 -84 318 0
-83 84 318 0
83 85 -319 0
-83 -85 -319 0
83 -85 319 0
-83 85 319 0
84 85 -320 0
-84 -85 -320 0
84 -85 320 0
-84 85 320 0
86 87 -321 0
-86 -87 -321 0
86 -87 321 0
-86 87 321 0
86 88 -322 0
-86 -88 -322 0
86 -88 322 0
-86 88 322 0
86 89 -323 0
-86 -89 -323 0
86 -89 323 0
-86 89 323 0
86 90 -324 0
-86 -90 -324 0
86 -90 324 0
-86 90 324 0
87 88 -325 0
-87 -88 -325 0
87 -88 325 0
-87 88 325 0
87 89 -326 0
-87 -89 -326 0
87 -89 326 0
-87 89 326 0
87 90 -327 0
-87 -90 -327 0
87 -90 327 0
-87 90 327 0
88 89 -328 0
-88 -89 -328 0
88 -89 328 0
-88 89 328 0
88 90 -329 0
-88 -90 -329 0
88 -90 329 0
-88 90 329 0
89 90 -330 0
-89 -90 -330 0
89 -90 330 0
-89 90 330 0
91 92 -331 0
-91 -92 -331 0
91 -92 331 0
-91 92 331 0
91 93 -332 0
-91 -93 -332 0
91 -93 332 0
-91 93 332 0
91 94 -333 0
-91 -94 -333 0
91 -94 333 0
-91 94 333 0
91 95 -334 0
-91 -95 -334 0
91 -95 334 0
-91 95 334 0
92 93 -335 0
-92 -93 -335 0
92 -93 335 0
-92 93 335 0
92 94 -336 0
-92 -94 -336 0
92 -94 336 0
-92 94 336 0
92 95 -337 0
-92 -95 -337 0
92 -95 337 0
-92 95 337 0
93 94 -338 0
-93 -94 -338 0
93 -94 338 0
-93 94 338 0
93 95 -339 0
-93 -95 -339 0
93 -95 339 0
-93 95 339 0
94 95 -340 0
-94 -95 -340 0
94 -95 340 0
-94 95 340 0
96 97 -341 0
-96 -97 -341 0
96 -97 341 0
-96 97 341 0
96 98 -342 0
-96 -98 -342 0
96 -98 342 0
-96 98 342 0
96 99 -343 0
-96 -99 -343 0
96 -99 343 0
-96 99 343 0
96 100 -344 0
-96 -100 -344 0
96 -100 344 0
-96 100 344 0
97 98 -345 0
-97 -98 -345 0
97 -98 345 0
-97 98 345 0
97 99 -346 0
-97 -99 -346 0
97 -99 346 0
-97 99 346 0
97 100 -347 0
-97 -100 -347 0
97 -100 347 0
-97 100 347 0
98 99 -348 0
-98 -99 -348 0
98 -99 348 0
-98 99 348 0
98 100 -349 0
-98 -100 -349 0
98 -100 349 0
-98 100 349 0
99 100 -350 0
-99 -100 -350 0
99 -100 350 0
-99 100 350 0
101 102 -351 0
-101 -102 -351 0
101 -102 351 0
-101 102 351 0
101 103 -352 0
-101 -103 -352 0
101 -103 352 0
-101 103 352 0
101 104 -353 0
-101 -104 -353 0
101 -104 353 0
-101 104 353 0
101 105 -354 0
-101 -105 -354 0
101 -105 354 0
-101 105 354 0
102 103 -355 0
-102 -103 -355 0
102 -103 355 0
-102 103 355 0
102 104 -356 0
-102 -104 -356 0
102 -104 356 0
-102 104 356 0
102 105 -357 0
-102 -105 -357 0
102 -105 357 0
-102 105 357 0
103 104 -358 0
-103 -104 -358 0
103 -104 358 0
-103 104 358 0
103 105 -359 0
-103 -105 -359 0
103 -105 359 0
-103 105 359 0
104 105 -360 0
-104 -105 -360 0
104 -105 360 0
-104 105 360 0
106 107 -361 0
-106 -107 -361 0
106 -107 361 0
-106 107 361 0
106 108 -362 0
-106 -108 -362 0
106 -108 362 0
-106 108 362 0
106 109 -363 0
-106 -109 -363 0
106 -109 363 0
-106 109 363 0
106 110 -364 0
-106 -110 -364 0
106 -110 364 0
-106 110 364 0
107 108 -365 0
-107 -108 -365 0
107 -108 365 0
-107 108 365 0
107 109 -366 0
-107 -109 -366 0
107 -109 366 0
-107 109 366 0
107 110 -367 0
-107 -110 -367 0
107 -110 367 0
-107 110 367 0
108 109 -368 0
-108 -109 -368 0
108 -109 368 0
-108 109 368 0
108 110 -369 0
-108 -110 -369 0
108 -110 369 0
-108 110 369 0
109 110 -370 0
-109 -110 -370 0
109 -110 370 0
-109 110 370 0
111 112 -371 0
-111 -112 -371 0
111 -112 371 0
-111 112 371 0
111 113 -372 0
-111 -113 -372 0
111 -113 372 0
-111 113 372 0
111 114 -373 0
-111 -114 -373 0
111 -114 373 0
-111 114 373 0
111 115 -374 0
-111 -115 -374 0
111 -115 374 0
-111 115 374 0
112 113 -375 0
-112 -113 -375 0
112 -113 375 0
-112 113 375 0
112 114 -376 0
-112 -114 -376 0
112 -114 376 0
-112 114 376 0
112 115 -377 0
-112 -115 -377 0
112 -115 377 0
-112 115 377 0
113 114 -378 0
-113 -114 -378 0
113 -114 378 0
-113 114 378 0
113 115 -379 0
-113 -115 -379 0
113 -115 379 0
-113 115 379 0
114 115 -380 0
-114 -115 -380 0
114 -115 380 0
-114 115 380 0
116 117 -381 0
-116 -117 -381 0
116 -117 381 0
-116 117 381 0
116 118 -382 0
-116 -118 -382 0
116 -118 382 0
-116 118 382 0
116 119 -383 0
-116 -119 -383 0
116 -119 383 0
-116 119 383 0
116 120 -384 0
-116 -120 -384 0
116 -120 384 0
-116 120 384 0
117 118 -385 0
-117 -118 -385 0
117 -118 385 0
-117 118 385 0
117 119 -386 0
-117 -119 -386 0
117 -119 386 0
-117 119 386 0
117 120 -387 0
-117 -120 -387 0
117 -120 387 0
-117 120 387 0
118 119 -388 0
-118 -119 -388 0
118 -119 388 0
-118 119 388 0
118 120 -389 0
-118 -120 -389 0
118 -120 389 0
-118 120 389 0
119 120 -390 0
-119 -120 -390 0
119 -120 390 0
-119 120 390 0
121 122 -391 0
-121 -122 -391 0
121 -122 391 0
-121 122 391 0
121 123 -392 0
-121 -123 -392 0
121 -123 392 0
-121 123 392 0
121 124 -393 0
-121 -124 -393 0
121 -124 393 0
-121 124 393 0
121 125 -394 0
-121 -125 -394 0
121 -125 394 0
-121 125 394 0
122 123 -395 0
-122 -123 -395 0
122 -123 395 0
-122 123 395 0
122 124 -396 0
-122 -124 -396 0
122 -124 396 0
-122 124 396 0
122 125 -397 0
-122 -125 -397 0
122 -125 397 0
-122 125 397 0
123 124 -398 0
-123 -124 -398 0
123 -124 398 0
-123 124 398 0
123 125 -399 0
-123 -125 -399 0
123 -125 399 0
-123 125 399 0
124 125 -400 0
-124 -125 -400 0
124 -125 400 0
-124 125 400 0
126 127 -401 0
-126 -127 -401 0
126 -127 401 0
-126 127 401 0
126 128 -402 0
-126 -128 -402 0
126 -128 402 0
-126 128 402 0
126 129 -403 0
-126 -129 -403 0
126 -129 403 0
-126 129 403 0
126 130 -404 0
-126 -130 -404 0
126 -130 404 0
-126 130 404 0
127 128 -405 0
-127 -128 -405 0
127 -128 405 0
-127 128 405 0
127 129 -406 0
-127 -129 -406 0
127 -129 406 0
-127 129 406 0
127 130 -407 0
-127 -130 -407 0
127 -130 407 0
-127 130 407 0
128 129 -408 0
-128 -129 -408 0
128 -129 408 0
-128 129 408 0
128 130 -409 0
-128 -130 -409 0
128 -130 409 0
-128 130 409 0
129 130 -410 0
-129 -130 -410 0
129 -130 410 0
-129 130 410 0
131 132 -411 0
-131 -132 -411 0
131 -132 411 0
-131 132 411 0
131 133 -412 0
-131 -133 -412 0
131 -133 412 0
-131 133 412 0
131 134 -413 0
-131 -134 -413 0
131 -134 413 0
-131 134 413 0
131 135 -414 0
-131 -135 -414 0
131 -135 414 0
-131 135 414 0
132 133 -415 0
-132 -133 -415 0
132 -133 415 0
-132 133 415 0
132 134 -416 0
-132 -134 -416 0
132 -134 416 0
-132 134 416 0
132 135 -417 0
-132 -135 -417 0
132 -135 417 0
-132 135 417 0
133 134 -418 0
-133 -134 -418 0
133 -134 418 0
-133 134 418 0
133 135 -419 0
-133 -135 -419 0
133 -135 419 0
-133 135 419 0
134 135 -420 0
-134 -135 -420 0
134 -135 420 0
-134 135 420 0
136 137 -421 0
-136 -137 -421 0
136 -137 421 0
-136 137 421 0
136 138 -422 0
-136 -138 -422 0
136 -138 422 0
-136 138 422 0
136 139 -423 0
-136 -139 -423 0
136 -139 423 0
-136 139 423 0
136 140 -424 0
-136 -140 -424 0
136 -140 424 0
-136 140 424 0
137 138 -425 0
-137 -138 -425 0
137 -138 425 0
-137 138 425 0
137 139 -426 0
-137 -139 -426 0
137 -139 426 0
-137 139 426 0
137 140 -427 0
-137 -140 -427 0
137 -140 427 0
-137 140 427 0
138 139 -428 0
-138 -139 -428 0
138 -139 428 0
-138 139 428 0
138 140 -429 0
-138 -140 -429 0
138 -140 429 0
-138 140 429 0
139 140 -430 0
-139 -140 -430 0
139 -140 430 0
-139 140 430 0
141 142 -431 0
-141 -142 -431 0
141 -142 431 0
-141 142 431 0
141 143 -432 0
-141 -143 -432 0
141 -143 432 0
-141 143 432 0
141 144 -433 0
-141 -144 -433 0
141 -144 433 0
-141 144 433 0
141 145 -434 0
-141 -145 -434 0
141 -145 434 0
-141 145 434 0
142 143 -435 0
-142 -143 -435 0
142 -143 435 0
-142 143 435 0
142 144 -436 0
-142 -144 -436 0
142 -144 436 0
-142 144 436 0
142 145 -437 0
-142 -145 -437 0
142 -145 437 0
-142 145 437 0
143 144 -438 0
-143 -144 -438 0
143 -144 438 0
-143 144 438 0
143 145 -439 0
-143 -145 -439 0
143 -145 439 0
-143 145 439 0
144 145 -440 0
-144 -145 -440 0
144 -145 440 0
-144 145 440 0
146 147 -441 0
-146 -147 -441 0
146 -147 441 0
-146 147 441 0
146 148 -442 0
-146 -148 -442 0
146 -148 442 0
-146 148 442 0
146 149 -443 0
-146 -149 -443 0
146 -149 443 0
-146 149 443 0
146 150 -444 0
-146 -150 -444 0
146 -150 444 0
-146 150 444 0
147 148 -445 0
-147 -148 -445 0
147 -148 445 0
-147 148 445 0
147 149 -446 0
-147 -149 -446 0
147 -149 446 0
-147 149 446 0
147 150 -447 0
-147 -150 -447 0
147 -150 447 0
-147 150 447 0
148 149 -448 0
-148 -149 -448 0
148 -149 448 0
-148 149 448 0
148 150 -449 0
-148 -150 -449 0
148 -150 449 0
-148 150 449 0
149 150 -450 0
-149 -150 -450 0
149 -150 450 0
-149 150 450 0
106 116 0
-106 -116 0
1 41 86 0
1 41 141 0
1 86 141 0
41 86 141 0
-1 -41 -86 0
-1 -41 -141 0
-1 -86 -141 0
-41 -86 -141 0
6 51 76 0
6 51 131 0
6 76 131 0
51 76 131 0
-6 -51 -76 0
-6 -51 -131 0
-6 -76 -131 0
-51 -76 -131 0
11 31 81 0
11 31 146 0
11 81 146 0
31 81 146 0
-11 -31 -81 0
-11 -31 -146 0
-11 -81 -146 0
-31 -81 -146 0
96 111 0
-96 -111 0
16 56 66 0
16 56 121 0
16 66 121 0
56 66 121 0
-16 -56 -66 0
-16 -56 -121 0
-16 -66 -121 0
-56 -66 -121 0
21 36 71 0
21 36 136 0
21 71 136 0
36 71 136 0
-21 -36 -71 0
-21 -36 -136 0
-21 -71 -136 0
-36 -71 -136 0
26 46 61 0
26 46 126 0
26 61 126 0
46 61 126 0
-26 -46 -61 0
-26 -46 -126 0
-26 -61 -126 0
-46 -61 -126 0
91 101 0
-91 -101 0
42 52 0
-42 -52 0
7 77 117 0
7 77 142 0
7 117 142 0
77 117 142 0
-7 -77 -117 0
-7 -77 -142 0
-7 -117 -142 0
-77 -117 -142 0
2 87 107 0
2 87 132 0
2 107 132 0
87 107 132 0
-2 -87 -107 0
-2 -87 -132 0
-2 -107 -132 0
-87 -107 -132 0
17 67 112 0
17 67 147 0
17 112 147 0
67 112 147 0
-17 -67 -112 0
-17 -67 -147 0
-17 -112 -147 0
-67 -112 -147 0
32 57 0
-32 -57 0
12 82 97 0
12 82 122 0
12 97 122 0
82 97 122 0
-12 -82 -97 0
-12 -82 -122 0
-12 -97 -122 0
-82 -97 -122 0
27 62 102 0
27 62 137 0
27 102 137 0
62 102 137 0
-27 -62 -102 0
-27 -62 -137 0
-27 -102 -137 0
-62 -102 -137 0
22 72 92 0
22 72 127 0
22 92 127 0
72 92 127 0
-22 -72 -92 0
-22 -72 -127 0
-22 -92 -127 0
-72 -92 -127 0
37 47 0
-37 -47 0
133 143 0
-133 -143 0
8 53 88 0
8 53 108 0
8 88 108 0
53 88 108 0
-8 -53 -88 0
-8 -53 -108 0
-8 -88 -108 0
-53 -88 -108 0
3 43 78 0
3 43 118 0
3 78 118 0
43 78 118 0
-3 -43 -78 0
-3 -43 -118 0
-3 -78 -118 0
-43 -78 -118 0
18 58 83 0
18 58 98 0
18 83 98 0
58 83 98 0
-18 -58 -83 0
-18 -58 -98 0
-18 -83 -98 0
-58 -83 -98 0
123 148 0
-123 -148 0
13 33 68 0
13 33 113 0
13 68 113 0
33 68 113 0
-13 -33 -68 0
-13 -33 -113 0
-13 -68 -113 0
-33 -68 -113 0
28 48 73 0
28 48 93 0
28 73 93 0
48 73 93 0
-28 -48 -73 0
-28 -48 -93 0
-28 -73 -93 0
-48 -73 -93 0
23 38 63 0
23 38 103 0
23 63 103 0
38 63 103 0
-23 -38 -63 0
-23 -38 -103 0
-23 -63 -103 0
-38 -63 -103 0
128 138 0
-128 -138 0
79 89 0
-79 -89 0
4 54 119 0
4 54 134 0
4 119 134 0
54 119 134 0
-4 -54 -119 0
-4 -54 -134 0
-4 -119 -134 0
-54 -119 -134 0
9 44 109 0
9 44 144 0
9 109 144 0
44 109 144 0
-9 -44 -109 0
-9 -44 -144 0
-9 -109 -144 0
-44 -109 -144 0
14 59 114 0
14 59 124 0
14 114 124 0
59 114 124 0
-14 -59 -114 0
-14 -59 -124 0
-14 -114 -124 0
-59 -114 -124 0
69 84 0
-69 -84 0
19 34 99 0
19 34 149 0
19 99 149 0
34 99 149 0
-19 -34 -99 0
-19 -34 -149 0
-19 -99 -149 0
-34 -99 -149 0
24 49 104 0
24 49 129 0
24 104 129 0
49 104 129 0
-24 -49 -104 0
-24 -49 -129 0
-24 -104 -129 0
-49 -104 -129 0
29 39 94 0
29 39 139 0
29 94 139 0
39 94 139 0
-29 -39 -94 0
-29 -39 -139 0
-29 -94 -139 0
-39 -94 -139 0
64 74 0
-64 -74 0
5 10 0
-5 -10 0
45 80 110 0
45 80 135 0
45 110 135 0
80 110 135 0
-45 -80 -110 0
-45 -80 -135 0
-45 -110 -135 0
-80 -110 -135 0
55 90 120 0
55 90 145 0
55 120 145 0
90 120 145 0
-55 -90 -120 0
-55 -90 -145 0
-55 -120 -145 0
-90 -120 -145 0
35 70 100 0
35 70 125 0
35 100 125 0
70 100 125 0
-35 -70 -100 0
-35 -70 -125 0
-35 -100 -125 0
-70 -100 -125 0
15 20 0
-15 -20 0
60 85 115 0
60 85 150 0
60 115 150 0
85 115 150 0
-60 -85 -115 0
-60 -85 -150 0
-60 -115 -150 0
-85 -115 -150 0
40 65 95 0
40 65 130 0
40 95 130 0
65 95 130 0
-40 -65 -95 0
-40 -65 -130 0
-40 -95 -130 0
-65 -95 -130 0
50 75 105 0
50 75 140 0
50 105 140 0
75 105 140 0
-50 -75 -105 0
-50 -75 -140 0
-50 -105 -140 0
-75 -105 -140 0
25 30 0
-25 -30 0
421 441 0
-421 -441 0
191 211 291 0
191 211 381 0
191 291 381 0
211 291 381 0
-191 -211 -291 0
-191 -211 -381 0
-191 -291 -381 0
-211 -291 -381 0
171 221 311 0
171 221 361 0
171 311 361 0
221 311 361 0
-171 -221 -311 0
-171 -221 -361 0
-171 -311 -361 0
-221 -311 -361 0
201 231 271 0
201 231 371 0
201 271 371 0
231 271 371 0
-201 -231 -271 0
-201 -231 -371 0
-201 -271 -371 0
-231 -271 -371 0
401 431 0
-401 -431 0
151 241 321 0
151 241 341 0
151 321 341 0
241 321 341 0
-151 -241 -321 0
-151 -241 -341 0
-151 -321 -341 0
-241 -321 -341 0
181 251 281 0
181 251 351 0
181 281 351 0
251 281 351 0
-181 -251 -281 0
-181 -251 -351 0
-181 -281 -351 0
-251 -281 -351 0
161 261 301 0
161 261 331 0
161 301 331 0
261 301 331 0
-161 -261 -301 0
-161 -261 -331 0
-161 -301 -331 0
-261 -301 -331 0
391 411 0
-391 -411 0
292 312 0
-292 -312 0
192 222 362 0
192 222 442 0
192 362 442 0
222 362 442 0
-192 -222 -362 0
-192 -222 -442 0
-192 -362 -442 0
-222 -362 -442 0
172 212 382 0
172 212 422 0
172 382 422 0
212 382 422 0
-172 -212 -382 0
-172 -212 -422 0
-172 -382 -422 0
-212 -382 -422 0
202 242 342 0
202 242 432 0
202 342 432 0
242 342 432 0
-202 -242 -342 0
-202 -242 -432 0
-202 -342 -432 0
-242 -342 -432 0
272 322 0
-272 -322 0
152 232 372 0
152 232 402 0
152 372 402 0
232 372 402 0
-152 -232 -372 0
-152 -232 -402 0
-152 -372 -402 0
-232 -372 -402 0
182 262 332 0
182 262 412 0
182 332 412 0
262 332 412 0
-182 -262 -332 0
-182 -262 -412 0
-182 -332 -412 0
-262 -332 -412 0
162 252 352 0
162 252 392 0
162 352 392 0
252 352 392 0
-162 -252 -352 0
-162 -252 -392 0
-162 -352 -392 0
-252 -352 -392 0
282 302 0
-282 -302 0
173 193 0
-173 -193 0
223 313 383 0
223 313 423 0
223 383 423 0
313 383 423 0
-223 -313 -383 0
-223 -313 -423 0
-223 -383 -423 0
-313 -383 -423 0
213 293 363 0
213 293 443 0
213 363 443 0
293 363 443 0
-213 -293 -363 0
-213 -293 -443 0
-213 -363 -443 0
-293 -363 -443 0
243 323 373 0
243 323 403 0
243 373 403 0
323 373 403 0
-243 -323 -373 0
-243 -323 -403 0
-243 -373 -403 0
-323 -373 -403 0
153 203 0
-153 -203 0
233 273 343 0
233 273 433 0
233 343 433 0
273 343 433 0
-233 -273 -343 0
-233 -273 -433 0
-233 -343 -433 0
-273 -343 -433 0
263 303 353 0
263 303 393 0
263 353 393 0
303 353 393 0
-263 -303 -353 0
-263 -303 -393 0
-263 -353 -393 0
-303 -353 -393 0
253 283 333 0
253 283 413 0
253 333 413 0
283 333 413 0
-253 -283 -333 0
-253 -283 -413 0
-253 -333 -413 0
-283 -333 -413 0
163 183 0
-163 -183 0
214 224 0
-214 -224 0
174 294 364 0
174 294 424 0
174 364 424 0
294 364 424 0
-174 -294 -364 0
-174 -294 -424 0
-174 -364 -424 0
-294 -364 -424 0
194 314 384 0
194 314 444 0
194 384 444 0
314 384 444 0
-194 -314 -384 0
-194 -314 -444 0
-194 -384 -444 0
-314 -384 -444 0
154 274 344 0
154 274 404 0
154 344 404 0
274 344 404 0
-154 -274 -344 0
-154 -274 -404 0
-154 -344 -404 0
-274 -344 -404 0
234 244 0
-234 -244 0
204 324 374 0
204 324 434 0
204 374 434 0
324 374 434 0
-204 -324 -374 0
-204 -324 -434 0
-204 -374 -434 0
-324 -374 -434 0
164 284 334 0
164 284 394 0
164 334 394 0
284 334 394 0
-164 -284 -334 0
-164 -284 -394 0
-164 -334 -394 0
-284 -334 -394 0
184 304 354 0
184 304 414 0
184 354 414 0
304 354 414 0
-184 -304 -354 0
-184 -304 -414 0
-184 -354 -414 0
-304 -354 -414 0
254 264 0
-254 -264 0
185 205 0
-185 -205 0
255 275 355 0
255 275 445 0
255 355 445 0
275 355 445 0
-255 -275 -355 0
-255 -275 -445 0
-255 -355 -445 0
-275 -355 -445 0
235 285 375 0
235 285 425 0
235 375 425 0
285 375 425 0
-235 -285 -375 0
-235 -285 -425 0
-235 -375 -425 0
-285 -375 -425 0
265 295 335 0
265 295 435 0
265 335 435 0
295 335 435 0
-265 -295 -335 0
-265 -295 -435 0
-265 -335 -435 0
-295 -335 -435 0
165 195 0
-165 -195 0
215 305 385 0
215 305 405 0
215 385 405 0
305 385 405 0
-215 -305 -385 0
-215 -305 -405 0
-215 -385 -405 0
-305 -385 -405 0
245 315 345 0
245 315 415 0
245 345 415 0
315 345 415 0
-245 -315 -345 0
-245 -315 -415 0
-245 -345 -415 0
-315 -345 -415 0
225 325 365 0
225 325 395 0
225 365 395 0
325 365 395 0
-225 -325 -365 0
-225 -325 -395 0
-225 -365 -395 0
-325 -365 -395 0
155 175 0
-155 -175 0
356 376 0
-356 -376 0
206 256 286 0
206 256 426 0
206 286 426 0
256 286 426 0
-206 -256 -286 0
-206 -256 -426 0
-206 -286 -426 0
-256 -286 -426 0
186 236 276 0
186 236 446 0
186 276 446 0
236 276 446 0
-186 -236 -276 0
-186 -236 -446 0
-186 -276 -446 0
-236 -276 -446 0
196 266 306 0
196 266 406 0
196 306 406 0
266 306 406 0
-196 -266 -306 0
-196 -266 -406 0
-196 -306 -406 0
-266 -306 -406 0
336 386 0
-336 -386 0
166 216 296 0
166 216 436 0
166 296 436 0
216 296 436 0
-166 -216 -296 0
-166 -216 -436 0
-166 -296 -436 0
-216 -296 -436 0
176 246 326 0
176 246 396 0
176 326 396 0
246 326 396 0
-176 -246 -326 0
-176 -246 -396 0
-176 -326 -396 0
-246 -326 -396 0
156 226 316 0
156 226 416 0
156 316 416 0
226 316 416 0
-156 -226 -316 0
-156 -226 -416 0
-156 -316 -416 0
-226 -316 -416 0
346 366 0
-346 -366 0
277 287 0
-277 -287 0
187 237 357 0
187 237 427 0
187 357 427 0
237 357 427 0
-187 -237 -357 0
-187 -237 -427 0
-187 -357 -427 0
-237 -357 -427 0
207 257 377 0
207 257 447 0
207 377 447 0
257 377 447 0
-207 -257 -377 0
-207 -257 -447 0
-207 -377 -447 0
-257 -377 -447 0
167 217 337 0
167 217 407 0
167 337 407 0
217 337 407 0
-167 -217 -337 0
-167 -217 -407 0
-167 -337 -407 0
-217 -337 -407 0
297 307 0
-297 -307 0
197 267 387 0
197 267 437 0
197 387 437 0
267 387 437 0
-197 -267 -387 0
-197 -267 -437 0
-197 -387 -437 0
-267 -387 -437 0
157 227 347 0
157 227 397 0
157 347 397 0
227 347 397 0
-157 -227 -347 0
-157 -227 -397 0
-157 -347 -397 0
-227 -347 -397 0
177 247 367 0
177 247 417 0
177 367 417 0
247 367 417 0
-177 -247 -367 0
-177 -247 -417 0
-177 -367 -417 0
-247 -367 -417 0
317 327 0
-317 -327 0
248 268 0
-248 -268 0
208 318 338 0
208 318 418 0
208 338 418 0
318 338 418 0
-208 -318 -338 0
-208 -318 -418 0
-208 -338 -418 0
-318 -338 -418 0
188 298 348 0
188 298 438 0
188 348 438 0
298 348 438 0
-188 -298 -348 0
-188 -298 -438 0
-188 -348 -438 0
-298 -348 -438 0
198 328 358 0
198 328 398 0
198 358 398 0
328 358 398 0
-198 -328 -358 0
-198 -328 -398 0
-198 -358 -398 0
-328 -358 -398 0
228 258 0
-228 -258 0
168 278 368 0
168 278 448 0
168 368 448 0
278 368 448 0
-168 -278 -368 0
-168 -278 -448 0
-168 -368 -448 0
-278 -368 -448 0
178 308 378 0
178 308 408 0
178 378 408 0
308 378 408 0
-178 -308 -378 0
-178 -308 -408 0
-178 -378 -408 0
-308 -378 -408 0
158 288 388 0
158 288 428 0
158 388 428 0
288 388 428 0
-158 -288 -388 0
-158 -288 -428 0
-158 -388 -428 0
-288 -388 -428 0
218 238 0
-218 -238 0
339 349 0
-339 -349 0
189 249 299 0
189 249 419 0
189 299 419 0
249 299 419 0
-189 -249 -299 0
-189 -249 -419 0
-189 -299 -419 0
-249 -299 -419 0
209 269 319 0
209 269 439 0
209 319 439 0
269 319 439 0
-209 -269 -319 0
-209 -269 -439 0
-209 -319 -439 0
-269 -319 -439 0
169 229 279 0
169 229 399 0
169 279 399 0
229 279 399 0
-169 -229 -279 0
-169 -229 -399 0
-169 -279 -399 0
-229 -279 -399 0
359 369 0
-359 -369 0
199 259 329 0
199 259 449 0
199 329 449 0
259 329 449 0
-199 -259 -329 0
-199 -259 -449 0
-199 -329 -449 0
-259 -329 -449 0
159 219 289 0
159 219 409 0
159 289 409 0
219 289 409 0
-159 -219 -289 0
-159 -219 -409 0
-159 -289 -409 0
-219 -289 -409 0
179 239 309 0
179 239 429 0
179 309 429 0
239 309 429 0
-179 -239 -309 0
-179 -239 -429 0
-179 -309 -429 0
-239 -309 -429 0
379 389 0
-379 -389 0
400 410 0
-400 -410 0
180 250 310 0
180 250 360 0
180 310 360 0
250 310 360 0
-180 -250 -310 0
-180 -250 -360 0
-180 -310 -360 0
-250 -310 -360 0
200 270 330 0
200 270 380 0
200 330 380 0
270 330 380 0
-200 -270 -330 0
-200 -270 -380 0
-200 -330 -380 0
-270 -330 -380 0
160 230 290 0
160 230 340 0
160 290 340 0
230 290 340 0
-160 -230 -290 0
-160 -230 -340 0
-160 -290 -340 0
-230 -290 -340 0
420 430 0
-420 -430 0
210 260 320 0
210 260 390 0
210 320 390 0
260 320 390 0
-210 -260 -320 0
-210 -260 -390 0
-210 -320 -390 0
-260 -320 -390 0
170 220 280 0
170 220 350 0
170 280 350 0
220 280 350 0
-170 -220 -280 0
-170 -220 -350 0
-170 -280 -350 0
-220 -280 -350 0
190 240 300 0
190 240 370 0
190 300 370 0
240 300 370 0
-190 -240 -300 0
-190 -240 -370 0
-190 -300 -370 0
-240 -300 -370 0
440 450 0
-440 -450 0
