p cnf 288 3780
-1 -2 -3 -4 -5 0
-1 -2 -3 -4 -6 0
-1 -2 -3 -4 -7 0
-1 -2 -3 -4 -8 0
-1 -2 -3 -5 -6 0
-1 -2 -3 -5 -7 0
-1 -2 -3 -5 -8 0
-1 -2 -3 -6 -7 0
-1 -2 -3 -6 -8 0
-1 -2 -3 -7 -8 0
-1 -2 -4 -5 -6 0
-1 -2 -4 -5 -7 0
-1 -2 -4 -5 -8 0
-1 -2 -4 -6 -7 0
-1 -2 -4 -6 -8 0
-1 -2 -4 -7 -8 0
-1 -2 -5 -6 -7 0
-1 -2 -5 -6 -8 0
-1 -2 -5 -7 -8 0
-1 -2 -6 -7 -8 0
-1 -3 -4 -5 -6 0
-1 -3 -4 -5 -7 0
-1 -3 -4 -5 -8 0
-1 -3 -4 -6 -7 0
-1 -3 -4 -6 -8 0
-1 -3 -4 -7 -8 0
-1 -3 -5 -6 -7 0
-1 -3 -5 -6 -8 0
-1 -3 -5 -7 -8 0
-1 -3 -6 -7 -8 0
-1 -4 -5 -6 -7 0
-1 -4 -5 -6 -8 0
-1 -4 -5 -7 -8 0
-1 -4 -6 -7 -8 0
-1 -5 -6 -7 -8 0
-2 -3 -4 -5 -6 0
-2 -3 -4 -5 -7 0
-2 -3 -4 -5 -8 0
-2 -3 -4 -6 -7 0
-2 -3 -4 -6 -8 0
-2 -3 -4 -7 -8 0
-2 -3 -5 -6 -7 0
-2 -3 -5 -6 -8 0
-2 -3 -5 -7 -8 0
-2 -3 -6 -7 -8 0
-2 -4 -5 -6 -7 0
-2 -4 -5 -6 -8 0
-2 -4 -5 -7 -8 0
-2 -4 -6 -7 -8 0
-2 -5 -6 -7 -8 0
-3 -4 -5 -6 -7 0
-3 -4 -5 -6 -8 0
-3 -4 -5 -7 -8 0
-3 -4 -6 -7 -8 0
-3 -5 -6 -7 -8 0
-4 -5 -6 -7 -8 0
1 2 3 4 5 0
1 2 3 4 6 0
1 2 3 4 7 0
1 2 3 4 8 0
1 2 3 5 6 0
1 2 3 5 7 0
1 2 3 5 8 0
1 2 3 6 7 0
1 2 3 6 8 0
1 2 3 7 8 0
1 2 4 5 6 0
1 2 4 5 7 0
1 2 4 5 8 0
1 2 4 6 7 0
1 2 4 6 8 0
1 2 4 7 8 0
1 2 5 6 7 0
1 2 5 6 8 0
1 2 5 7 8 0
1 2 6 7 8 0
1 3 4 5 6 0
1 3 4 5 7 0
1 3 4 5 8 0
1 3 4 6 7 0
1 3 4 6 8 0
1 3 4 7 8 0
1 3 5 6 7 0
1 3 5 6 8 0
1 3 5 7 8 0
1 3 6 7 8 0
1 4 5 6 7 0
1 4 5 6 8 0
1 4 5 7 8 0
1 4 6 7 8 0
1 5 6 7 8 0
2 3 4 5 6 0
2 3 4 5 7 0
2 3 4 5 8 0
2 3 4 6 7 0
2 3 4 6 8 0
2 3 4 7 8 0
2 3 5 6 7 0
2 3 5 6 8 0
2 3 5 7 8 0
2 3 6 7 8 0
2 4 5 6 7 0
2 4 5 6 8 0
2 4 5 7 8 0
2 4 6 7 8 0
2 5 6 7 8 0
3 4 5 6 7 0
3 4 5 6 8 0
3 4 5 7 8 0
3 4 6 7 8 0
3 5 6 7 8 0
4 5 6 7 8 0
-1 -9 -10 -11 -12 0
-1 -9 -10 -11 -13 0
-1 -9 -10 -11 -14 0
-1 -9 -10 -11 -15 0
-1 -9 -10 -12 -13 0
-1 -9 -10 -12 -14 0
-1 -9 -10 -12 -15 0
-1 -9 -10 -13 -14 0
-1 -9 -10 -13 -15 0
-1 -9 -10 -14 -15 0
-1 -9 -11 -12 -13 0
-1 -9 -11 -12 -14 0
-1 -9 -11 -12 -15 0
-1 -9 -11 -13 -14 0
-1 -9 -11 -13 -15 0
-1 -9 -11 -14 -15 0
-1 -9 -12 -13 -14 0
-1 -9 -12 -13 -15 0
-1 -9 -12 -14 -15 0
-1 -9 -13 -14 -15 0
-1 -10 -11 -12 -13 0
-1 -10 -11 -12 -14 0
-1 -10 -11 -12 -15 0
-1 -10 -11 -13 -14 0
-1 -10 -11 -13 -15 0
-1 -10 -11 -14 -15 0
-1 -10 -12 -13 -14 0
-1 -10 -12 -13 -15 0
-1 -10 -12 -14 -15 0
-1 -10 -13 -14 -15 0
-1 -11 -12 -13 -14 0
-1 -11 -12 -13 -15 0
-1 -11 -12 -14 -15 0
-1 -11 -13 -14 -15 0
-1 -12 -13 -14 -15 0
-9 -10 -11 -12 -13 0
-9 -10 -11 -12 -14 0
-9 -10 -11 -12 -15 0
-9 -10 -11 -13 -14 0
-9 -10 -11 -13 -15 0
-9 -10 -11 -14 -15 0
-9 -10 -12 -13 -14 0
-9 -10 -12 -13 -15 0
-9 -10 -12 -14 -15 0
-9 -10 -13 -14 -15 0
-9 -11 -12 -13 -14 0
-9 -11 -12 -13 -15 0
-9 -11 -12 -14 -15 0
-9 -11 -13 -14 -15 0
-9 -12 -13 -14 -15 0
-10 -11 -12 -13 -14 0
-10 -11 -12 -13 -15 0
-10 -11 -12 -14 -15 0
-10 -11 -13 -14 -15 0
-10 -12 -13 -14 -15 0
-11 -12 -13 -14 -15 0
1 9 10 11 12 0
1 9 10 11 13 0
1 9 10 11 14 0
1 9 10 11 15 0
1 9 10 12 13 0
1 9 10 12 14 0
1 9 10 12 15 0
1 9 10 13 14 0
1 9 10 13 15 0
1 9 10 14 15 0
1 9 11 12 13 0
1 9 11 12 14 0
1 9 11 12 15 0
1 9 11 13 14 0
1 9 11 13 15 0
1 9 11 14 15 0
1 9 12 13 14 0
1 9 12 13 15 0
1 9 12 14 15 0
1 9 13 14 15 0
1 10 11 12 13 0
1 10 11 12 14 0
1 10 11 12 15 0
1 10 11 13 14 0
1 10 11 13 15 0
1 10 11 14 15 0
1 10 12 13 14 0
1 10 12 13 15 0
1 10 12 14 15 0
1 10 13 14 15 0
1 11 12 13 14 0
1 11 12 13 15 0
1 11 12 14 15 0
1 11 13 14 15 0
1 12 13 14 15 0
9 10 11 12 13 0
9 10 11 12 14 0
9 10 11 12 15 0
9 10 11 13 14 0
9 10 11 13 15 0
9 10 11 14 15 0
9 10 12 13 14 0
9 10 12 13 15 0
9 10 12 14 15 0
9 10 13 14 15 0
9 11 12 13 14 0
9 11 12 13 15 0
9 11 12 14 15 0
9 11 13 14 15 0
9 12 13 14 15 0
10 11 12 13 14 0
10 11 12 13 15 0
10 11 12 14 15 0
10 11 13 14 15 0
10 12 13 14 15 0
11 12 13 14 15 0
-2 -9 -16 -17 -18 0
-2 -9 -16 -17 -19 0
-2 -9 -16 -17 -20 0
-2 -9 -16 -17 -21 0
-2 -9 -16 -18 -19 0
-2 -9 -16 -18 -20 0
-2 -9 -16 -18 -21 0
-2 -9 -16 -19 -20 0
-2 -9 -16 -19 -21 0
-2 -9 -16 -20 -21 0
-2 -9 -17 -18 -19 0
-2 -9 -17 -18 -20 0
-2 -9 -17 -18 -21 0
-2 -9 -17 -19 -20 0
-2 -9 -17 -19 -21 0
-2 -9 -17 -20 -21 0
-2 -9 -18 -19 -20 0
-2 -9 -18 -19 -21 0
-2 -9 -18 -20 -21 0
-2 -9 -19 -20 -21 0
-2 -16 -17 -18 -19 0
-2 -16 -17 -18 -20 0
-2 -16 -17 -18 -21 0
-2 -16 -17 -19 -20 0
-2 -16 -17 -19 -21 0
-2 -16 -17 -20 -21 0
-2 -16 -18 -19 -20 0
-2 -16 -18 -19 -21 0
-2 -16 -18 -20 -21 0
-2 -16 -19 -20 -21 0
-2 -17 -18 -19 -20 0
-2 -17 -18 -19 -21 0
-2 -17 -18 -20 -21 0
-2 -17 -19 -20 -21 0
-2 -18 -19 -20 -21 0
-9 -16 -17 -18 -19 0
-9 -16 -17 -18 -20 0
-9 -16 -17 -18 -21 0
-9 -16 -17 -19 -20 0
-9 -16 -17 -19 -21 0
-9 -16 -17 -20 -21 0
-9 -16 -18 -19 -20 0
-9 -16 -18 -19 -21 0
-9 -16 -18 -20 -21 0
-9 -16 -19 -20 -21 0
-9 -17 -18 -19 -20 0
-9 -17 -18 -19 -21 0
-9 -17 -18 -20 -21 0
-9 -17 -19 -20 -21 0
-9 -18 -19 -20 -21 0
-16 -17 -18 -19 -20 0
-16 -17 -18 -19 -21 0
-16 -17 -18 -20 -21 0
-16 -17 -19 -20 -21 0
-16 -18 -19 -20 -21 0
-17 -18 -19 -20 -21 0
2 9 16 17 18 0
2 9 16 17 19 0
2 9 16 17 20 0
2 9 16 17 21 0
2 9 16 18 19 0
2 9 16 18 20 0
2 9 16 18 21 0
2 9 16 19 20 0
2 9 16 19 21 0
2 9 16 20 21 0
2 9 17 18 19 0
2 9 17 18 20 0
2 9 17 18 21 0
2 9 17 19 20 0
2 9 17 19 21 0
2 9 17 20 21 0
2 9 18 19 20 0
2 9 18 19 21 0
2 9 18 20 21 0
2 9 19 20 21 0
2 16 17 18 19 0
2 16 17 18 20 0
2 16 17 18 21 0
2 16 17 19 20 0
2 16 17 19 21 0
2 16 17 20 21 0
2 16 18 19 20 0
2 16 18 19 21 0
2 16 18 20 21 0
2 16 19 20 21 0
2 17 18 19 20 0
2 17 18 19 21 0
2 17 18 20 21 0
2 17 19 20 21 0
2 18 19 20 21 0
9 16 17 18 19 0
9 16 17 18 20 0
9 16 17 18 21 0
9 16 17 19 20 0
9 16 17 19 21 0
9 16 17 20 21 0
9 16 18 19 20 0
9 16 18 19 21 0
9 16 18 20 21 0
9 16 19 20 21 0
9 17 18 19 20 0
9 17 18 19 21 0
9 17 18 20 21 0
9 17 19 20 21 0
9 18 19 20 21 0
16 17 18 19 20 0
16 17 18 19 21 0
16 17 18 20 21 0
16 17 19 20 21 0
16 18 19 20 21 0
17 18 19 20 21 0
-3 -10 -16 -22 -23 0
-3 -10 -16 -22 -24 0
-3 -10 -16 -22 -25 0
-3 -10 -16 -22 -26 0
-3 -10 -16 -23 -24 0
-3 -10 -16 -23 -25 0
-3 -10 -16 -23 -26 0
-3 -10 -16 -24 -25 0
-3 -10 -16 -24 -26 0
-3 -10 -16 -25 -26 0
-3 -10 -22 -23 -24 0
-3 -10 -22 -23 -25 0
-3 -10 -22 -23 -26 0
-3 -10 -22 -24 -25 0
-3 -10 -22 -24 -26 0
-3 -10 -22 -25 -26 0
-3 -10 -23 -24 -25 0
-3 -10 -23 -24 -26 0
-3 -10 -23 -25 -26 0
-3 -10 -24 -25 -26 0
-3 -16 -22 -23 -24 0
-3 -16 -22 -23 -25 0
-3 -16 -22 -23 -26 0
-3 -16 -22 -24 -25 0
-3 -16 -22 -24 -26 0
-3 -16 -22 -25 -26 0
-3 -16 -23 -24 -25 0
-3 -16 -23 -24 -26 0
-3 -16 -23 -25 -26 0
-3 -16 -24 -25 -26 0
-3 -22 -23 -24 -25 0
-3 -22 -23 -24 -26 0
-3 -22 -23 -25 -26 0
-3 -22 -24 -25 -26 0
-3 -23 -24 -25 -26 0
-10 -16 -22 -23 -24 0
-10 -16 -22 -23 -25 0
-10 -16 -22 -23 -26 0
-10 -16 -22 -24 -25 0
-10 -16 -22 -24 -26 0
-10 -16 -22 -25 -26 0
-10 -16 -23 -24 -25 0
-10 -16 -23 -24 -26 0
-10 -16 -23 -25 -26 0
-10 -16 -24 -25 -26 0
-10 -22 -23 -24 -25 0
-10 -22 -23 -24 -26 0
-10 -22 -23 -25 -26 0
-10 -22 -24 -25 -26 0
-10 -23 -24 -25 -26 0
-16 -22 -23 -24 -25 0
-16 -22 -23 -24 -26 0
-16 -22 -23 -25 -26 0
-16 -22 -24 -25 -26 0
-16 -23 -24 -25 -26 0
-22 -23 -24 -25 -26 0
3 10 16 22 23 0
3 10 16 22 24 0
3 10 16 22 25 0
3 10 16 22 26 0
3 10 16 23 24 0
3 10 16 23 25 0
3 10 16 23 26 0
3 10 16 24 25 0
3 10 16 24 26 0
3 10 16 25 26 0
3 10 22 23 24 0
3 10 22 23 25 0
3 10 22 23 26 0
3 10 22 24 25 0
3 10 22 24 26 0
3 10 22 25 26 0
3 10 23 24 25 0
3 10 23 24 26 0
3 10 23 25 26 0
3 10 24 25 26 0
3 16 22 23 24 0
3 16 22 23 25 0
3 16 22 23 26 0
3 16 22 24 25 0
3 16 22 24 26 0
3 16 22 25 26 0
3 16 23 24 25 0
3 16 23 24 26 0
3 16 23 25 26 0
3 16 24 25 26 0
3 22 23 24 25 0
3 22 23 24 26 0
3 22 23 25 26 0
3 22 24 25 26 0
3 23 24 25 26 0
10 16 22 23 24 0
10 16 22 23 25 0
10 16 22 23 26 0
10 16 22 24 25 0
10 16 22 24 26 0
10 16 22 25 26 0
10 16 23 24 25 0
10 16 23 24 26 0
10 16 23 25 26 0
10 16 24 25 26 0
10 22 23 24 25 0
10 22 23 24 26 0
10 22 23 25 26 0
10 22 24 25 26 0
10 23 24 25 26 0
16 22 23 24 25 0
16 22 23 24 26 0
16 22 23 25 26 0
16 22 24 25 26 0
16 23 24 25 26 0
22 23 24 25 26 0
-4 -11 -17 -22 -27 0
-4 -11 -17 -22 -28 0
-4 -11 -17 -22 -29 0
-4 -11 -17 -22 -30 0
-4 -11 -17 -27 -28 0
-4 -11 -17 -27 -29 0
-4 -11 -17 -27 -30 0
-4 -11 -17 -28 -29 0
-4 -11 -17 -28 -30 0
-4 -11 -17 -29 -30 0
-4 -11 -22 -27 -28 0
-4 -11 -22 -27 -29 0
-4 -11 -22 -27 -30 0
-4 -11 -22 -28 -29 0
-4 -11 -22 -28 -30 0
-4 -11 -22 -29 -30 0
-4 -11 -27 -28 -29 0
-4 -11 -27 -28 -30 0
-4 -11 -27 -29 -30 0
-4 -11 -28 -29 -30 0
-4 -17 -22 -27 -28 0
-4 -17 -22 -27 -29 0
-4 -17 -22 -27 -30 0
-4 -17 -22 -28 -29 0
-4 -17 -22 -28 -30 0
-4 -17 -22 -29 -30 0
-4 -17 -27 -28 -29 0
-4 -17 -27 -28 -30 0
-4 -17 -27 -29 -30 0
-4 -17 -28 -29 -30 0
-4 -22 -27 -28 -29 0
-4 -22 -27 -28 -30 0
-4 -22 -27 -29 -30 0
-4 -22 -28 -29 -30 0
-4 -27 -28 -29 -30 0
-11 -17 -22 -27 -28 0
-11 -17 -22 -27 -29 0
-11 -17 -22 -27 -30 0
-11 -17 -22 -28 -29 0
-11 -17 -22 -28 -30 0
-11 -17 -22 -29 -30 0
-11 -17 -27 -28 -29 0
-11 -17 -27 -28 -30 0
-11 -17 -27 -29 -30 0
-11 -17 -28 -29 -30 0
-11 -22 -27 -28 -29 0
-11 -22 -27 -28 -30 0
-11 -22 -27 -29 -30 0
-11 -22 -28 -29 -30 0
-11 -27 -28 -29 -30 0
-17 -22 -27 -28 -29 0
-17 -22 -27 -28 -30 0
-17 -22 -27 -29 -30 0
-17 -22 -28 -29 -30 0
-17 -27 -28 -29 -30 0
-22 -27 -28 -29 -30 0
4 11 17 22 27 0
4 11 17 22 28 0
4 11 17 22 29 0
4 11 17 22 30 0
4 11 17 27 28 0
4 11 17 27 29 0
4 11 17 27 30 0
4 11 17 28 29 0
4 11 17 28 30 0
4 11 17 29 30 0
4 11 22 27 28 0
4 11 22 27 29 0
4 11 22 27 30 0
4 11 22 28 29 0
4 11 22 28 30 0
4 11 22 29 30 0
4 11 27 28 29 0
4 11 27 28 30 0
4 11 27 29 30 0
4 11 28 29 30 0
4 17 22 27 28 0
4 17 22 27 29 0
4 17 22 27 30 0
4 17 22 28 29 0
4 17 22 28 30 0
4 17 22 29 30 0
4 17 27 28 29 0
4 17 27 28 30 0
4 17 27 29 30 0
4 17 28 29 30 0
4 22 27 28 29 0
4 22 27 28 30 0
4 22 27 29 30 0
4 22 28 29 30 0
4 27 28 29 30 0
11 17 22 27 28 0
11 17 22 27 29 0
11 17 22 27 30 0
11 17 22 28 29 0
11 17 22 28 30 0
11 17 22 29 30 0
11 17 27 28 29 0
11 17 27 28 30 0
11 17 27 29 30 0
11 17 28 29 30 0
11 22 27 28 29 0
11 22 27 28 30 0
11 22 27 29 30 0
11 22 28 29 30 0
11 27 28 29 30 0
17 22 27 28 29 0
17 22 27 28 30 0
17 22 27 29 30 0
17 22 28 29 30 0
17 27 28 29 30 0
22 27 28 29 30 0
-5 -12 -18 -23 -27 0
-5 -12 -18 -23 -31 0
-5 -12 -18 -23 -32 0
-5 -12 -18 -23 -33 0
-5 -12 -18 -27 -31 0
-5 -12 -18 -27 -32 0
-5 -12 -18 -27 -33 0
-5 -12 -18 -31 -32 0
-5 -12 -18 -31 -33 0
-5 -12 -18 -32 -33 0
-5 -12 -23 -27 -31 0
-5 -12 -23 -27 -32 0
-5 -12 -23 -27 -33 0
-5 -12 -23 -31 -32 0
-5 -12 -23 -31 -33 0
-5 -12 -23 -32 -33 0
-5 -12 -27 -31 -32 0
-5 -12 -27 -31 -33 0
-5 -12 -27 -32 -33 0
-5 -12 -31 -32 -33 0
-5 -18 -23 -27 -31 0
-5 -18 -23 -27 -32 0
-5 -18 -23 -27 -33 0
-5 -18 -23 -31 -32 0
-5 -18 -23 -31 -33 0
-5 -18 -23 -32 -33 0
-5 -18 -27 -31 -32 0
-5 -18 -27 -31 -33 0
-5 -18 -27 -32 -33 0
-5 -18 -31 -32 -33 0
-5 -23 -27 -31 -32 0
-5 -23 -27 -31 -33 0
-5 -23 -27 -32 -33 0
-5 -23 -31 -32 -33 0
-5 -27 -31 -32 -33 0
-12 -18 -23 -27 -31 0
-12 -18 -23 -27 -32 0
-12 -18 -23 -27 -33 0
-12 -18 -23 -31 -32 0
-12 -18 -23 -31 -33 0
-12 -18 -23 -32 -33 0
-12 -18 -27 -31 -32 0
-12 -18 -27 -31 -33 0
-12 -18 -27 -32 -33 0
-12 -18 -31 -32 -33 0
-12 -23 -27 -31 -32 0
-12 -23 -27 -31 -33 0
-12 -23 -27 -32 -33 0
-12 -23 -31 -32 -33 0
-12 -27 -31 -32 -33 0
-18 -23 -27 -31 -32 0
-18 -23 -27 -31 -33 0
-18 -23 -27 -32 -33 0
-18 -23 -31 -32 -33 0
-18 -27 -31 -32 -33 0
-23 -27 -31 -32 -33 0
5 12 18 23 27 0
5 12 18 23 31 0
5 12 18 23 32 0
5 12 18 23 33 0
5 12 18 27 31 0
5 12 18 27 32 0
5 12 18 27 33 0
5 12 18 31 32 0
5 12 18 31 33 0
5 12 18 32 33 0
5 12 23 27 31 0
5 12 23 27 32 0
5 12 23 27 33 0
5 12 23 31 32 0
5 12 23 31 33 0
5 12 23 32 33 0
5 12 27 31 32 0
5 12 27 31 33 0
5 12 27 32 33 0
5 12 31 32 33 0
5 18 23 27 31 0
5 18 23 27 32 0
5 18 23 27 33 0
5 18 23 31 32 0
5 18 23 31 33 0
5 18 23 32 33 0
5 18 27 31 32 0
5 18 27 31 33 0
5 18 27 32 33 0
5 18 31 32 33 0
5 23 27 31 32 0
5 23 27 31 33 0
5 23 27 32 33 0
5 23 31 32 33 0
5 27 31 32 33 0
12 18 23 27 31 0
12 18 23 27 32 0
12 18 23 27 33 0
12 18 23 31 32 0
12 18 23 31 33 0
12 18 23 32 33 0
12 18 27 31 32 0
12 18 27 31 33 0
12 18 27 32 33 0
12 18 31 32 33 0
12 23 27 31 32 0
12 23 27 31 33 0
12 23 27 32 33 0
12 23 31 32 33 0
12 27 31 32 33 0
18 23 27 31 32 0
18 23 27 31 33 0
18 23 27 32 33 0
18 23 31 32 33 0
18 27 31 32 33 0
23 27 31 32 33 0
-6 -13 -19 -24 -28 0
-6 -13 -19 -24 -31 0
-6 -13 -19 -24 -34 0
-6 -13 -19 -24 -35 0
-6 -13 -19 -28 -31 0
-6 -13 -19 -28 -34 0
-6 -13 -19 -28 -35 0
-6 -13 -19 -31 -34 0
-6 -13 -19 -31 -35 0
-6 -13 -19 -34 -35 0
-6 -13 -24 -28 -31 0
-6 -13 -24 -28 -34 0
-6 -13 -24 -28 -35 0
-6 -13 -24 -31 -34 0
-6 -13 -24 -31 -35 0
-6 -13 -24 -34 -35 0
-6 -13 -28 -31 -34 0
-6 -13 -28 -31 -35 0
-6 -13 -28 -34 -35 0
-6 -13 -31 -34 -35 0
-6 -19 -24 -28 -31 0
-6 -19 -24 -28 -34 0
-6 -19 -24 -28 -35 0
-6 -19 -24 -31 -34 0
-6 -19 -24 -31 -35 0
-6 -19 -24 -34 -35 0
-6 -19 -28 -31 -34 0
-6 -19 -28 -31 -35 0
-6 -19 -28 -34 -35 0
-6 -19 -31 -34 -35 0
-6 -24 -28 -31 -34 0
-6 -24 -28 -31 -35 0
-6 -24 -28 -34 -35 0
-6 -24 -31 -34 -35 0
-6 -28 -31 -34 -35 0
-13 -19 -24 -28 -31 0
-13 -19 -24 -28 -34 0
-13 -19 -24 -28 -35 0
-13 -19 -24 -31 -34 0
-13 -19 -24 -31 -35 0
-13 -19 -24 -34 -35 0
-13 -19 -28 -31 -34 0
-13 -19 -28 -31 -35 0
-13 -19 -28 -34 -35 0
-13 -19 -31 -34 -35 0
-13 -24 -28 -31 -34 0
-13 -24 -28 -31 -35 0
-13 -24 -28 -34 -35 0
-13 -24 -31 -34 -35 0
-13 -28 -31 -34 -35 0
-19 -24 -28 -31 -34 0
-19 -24 -28 -31 -35 0
-19 -24 -28 -34 -35 0
-19 -24 -31 -34 -35 0
-19 -28 -31 -34 -35 0
-24 -28 -31 -34 -35 0
6 13 19 24 28 0
6 13 19 24 31 0
6 13 19 24 34 0
6 13 19 24 35 0
6 13 19 28 31 0
6 13 19 28 34 0
6 13 19 28 35 0
6 13 19 31 34 0
6 13 19 31 35 0
6 13 19 34 35 0
6 13 24 28 31 0
6 13 24 28 34 0
6 13 24 28 35 0
6 13 24 31 34 0
6 13 24 31 35 0
6 13 24 34 35 0
6 13 28 31 34 0
6 13 28 31 35 0
6 13 28 34 35 0
6 13 31 34 35 0
6 19 24 28 31 0
6 19 24 28 34 0
6 19 24 28 35 0
6 19 24 31 34 0
6 19 24 31 35 0
6 19 24 34 35 0
6 19 28 31 34 0
6 19 28 31 35 0
6 19 28 34 35 0
6 19 31 34 35 0
6 24 28 31 34 0
6 24 28 31 35 0
6 24 28 34 35 0
6 24 31 34 35 0
6 28 31 34 35 0
13 19 24 28 31 0
13 19 24 28 34 0
13 19 24 28 35 0
13 19 24 31 34 0
13 19 24 31 35 0
13 19 24 34 35 0
13 19 28 31 34 0
13 19 28 31 35 0
13 19 28 34 35 0
13 19 31 34 35 0
13 24 28 31 34 0
13 24 28 31 35 0
13 24 28 34 35 0
13 24 31 34 35 0
13 28 31 34 35 0
19 24 28 31 34 0
19 24 28 31 35 0
19 24 28 34 35 0
19 24 31 34 35 0
19 28 31 34 35 0
24 28 31 34 35 0
-7 -14 -20 -25 -29 0
-7 -14 -20 -25 -32 0
-7 -14 -20 -25 -34 0
-7 -14 -20 -25 -36 0
-7 -14 -20 -29 -32 0
-7 -14 -20 -29 -34 0
-7 -14 -20 -29 -36 0
-7 -14 -20 -32 -34 0
-7 -14 -20 -32 -36 0
-7 -14 -20 -34 -36 0
-7 -14 -25 -29 -32 0
-7 -14 -25 -29 -34 0
-7 -14 -25 -29 -36 0
-7 -14 -25 -32 -34 0
-7 -14 -25 -32 -36 0
-7 -14 -25 -34 -36 0
-7 -14 -29 -32 -34 0
-7 -14 -29 -32 -36 0
-7 -14 -29 -34 -36 0
-7 -14 -32 -34 -36 0
-7 -20 -25 -29 -32 0
-7 -20 -25 -29 -34 0
-7 -20 -25 -29 -36 0
-7 -20 -25 -32 -34 0
-7 -20 -25 -32 -36 0
-7 -20 -25 -34 -36 0
-7 -20 -29 -32 -34 0
-7 -20 -29 -32 -36 0
-7 -20 -29 -34 -36 0
-7 -20 -32 -34 -36 0
-7 -25 -29 -32 -34 0
-7 -25 -29 -32 -36 0
-7 -25 -29 -34 -36 0
-7 -25 -32 -34 -36 0
-7 -29 -32 -34 -36 0
-14 -20 -25 -29 -32 0
-14 -20 -25 -29 -34 0
-14 -20 -25 -29 -36 0
-14 -20 -25 -32 -34 0
-14 -20 -25 -32 -36 0
-14 -20 -25 -34 -36 0
-14 -20 -29 -32 -34 0
-14 -20 -29 -32 -36 0
-14 -20 -29 -34 -36 0
-14 -20 -32 -34 -36 0
-14 -25 -29 -32 -34 0
-14 -25 -29 -32 -36 0
-14 -25 -29 -34 -36 0
-14 -25 -32 -34 -36 0
-14 -29 -32 -34 -36 0
-20 -25 -29 -32 -34 0
-20 -25 -29 -32 -36 0
-20 -25 -29 -34 -36 0
-20 -25 -32 -34 -36 0
-20 -29 -32 -34 -36 0
-25 -29 -32 -34 -36 0
7 14 20 25 29 0
7 14 20 25 32 0
7 14 20 25 34 0
7 14 20 25 36 0
7 14 20 29 32 0
7 14 20 29 34 0
7 14 20 29 36 0
7 14 20 32 34 0
7 14 20 32 36 0
7 14 20 34 36 0
7 14 25 29 32 0
7 14 25 29 34 0
7 14 25 29 36 0
7 14 25 32 34 0
7 14 25 32 36 0
7 14 25 34 36 0
7 14 29 32 34 0
7 14 29 32 36 0
7 14 29 34 36 0
7 14 32 34 36 0
7 20 25 29 32 0
7 20 25 29 34 0
7 20 25 29 36 0
7 20 25 32 34 0
7 20 25 32 36 0
7 20 25 34 36 0
7 20 29 32 34 0
7 20 29 32 36 0
7 20 29 34 36 0
7 20 32 34 36 0
7 25 29 32 34 0
7 25 29 32 36 0
7 25 29 34 36 0
7 25 32 34 36 0
7 29 32 34 36 0
14 20 25 29 32 0
14 20 25 29 34 0
14 20 25 29 36 0
14 20 25 32 34 0
14 20 25 32 36 0
14 20 25 34 36 0
14 20 29 32 34 0
14 20 29 32 36 0
14 20 29 34 36 0
14 20 32 34 36 0
14 25 29 32 34 0
14 25 29 32 36 0
14 25 29 34 36 0
14 25 32 34 36 0
14 29 32 34 36 0
20 25 29 32 34 0
20 25 29 32 36 0
20 25 29 34 36 0
20 25 32 34 36 0
20 29 32 34 36 0
25 29 32 34 36 0
-8 -15 -21 -26 -30 0
-8 -15 -21 -26 -33 0
-8 -15 -21 -26 -35 0
-8 -15 -21 -26 -36 0
-8 -15 -21 -30 -33 0
-8 -15 -21 -30 -35 0
-8 -15 -21 -30 -36 0
-8 -15 -21 -33 -35 0
-8 -15 -21 -33 -36 0
-8 -15 -21 -35 -36 0
-8 -15 -26 -30 -33 0
-8 -15 -26 -30 -35 0
-8 -15 -26 -30 -36 0
-8 -15 -26 -33 -35 0
-8 -15 -26 -33 -36 0
-8 -15 -26 -35 -36 0
-8 -15 -30 -33 -35 0
-8 -15 -30 -33 -36 0
-8 -15 -30 -35 -36 0
-8 -15 -33 -35 -36 0
-8 -21 -26 -30 -33 0
-8 -21 -26 -30 -35 0
-8 -21 -26 -30 -36 0
-8 -21 -26 -33 -35 0
-8 -21 -26 -33 -36 0
-8 -21 -26 -35 -36 0
-8 -21 -30 -33 -35 0
-8 -21 -30 -33 -36 0
-8 -21 -30 -35 -36 0
-8 -21 -33 -35 -36 0
-8 -26 -30 -33 -35 0
-8 -26 -30 -33 -36 0
-8 -26 -30 -35 -36 0
-8 -26 -33 -35 -36 0
-8 -30 -33 -35 -36 0
-15 -21 -26 -30 -33 0
-15 -21 -26 -30 -35 0
-15 -21 -26 -30 -36 0
-15 -21 -26 -33 -35 0
-15 -21 -26 -33 -36 0
-15 -21 -26 -35 -36 0
-15 -21 -30 -33 -35 0
-15 -21 -30 -33 -36 0
-15 -21 -30 -35 -36 0
-15 -21 -33 -35 -36 0
-15 -26 -30 -33 -35 0
-15 -26 -30 -33 -36 0
-15 -26 -30 -35 -36 0
-15 -26 -33 -35 -36 0
-15 -30 -33 -35 -36 0
-21 -26 -30 -33 -35 0
-21 -26 -30 -33 -36 0
-21 -26 -30 -35 -36 0
-21 -26 -33 -35 -36 0
-21 -30 -33 -35 -36 0
-26 -30 -33 -35 -36 0
8 15 21 26 30 0
8 15 21 26 33 0
8 15 21 26 35 0
8 15 21 26 36 0
8 15 21 30 33 0
8 15 21 30 35 0
8 15 21 30 36 0
8 15 21 33 35 0
8 15 21 33 36 0
8 15 21 35 36 0
8 15 26 30 33 0
8 15 26 30 35 0
8 15 26 30 36 0
8 15 26 33 35 0
8 15 26 33 36 0
8 15 26 35 36 0
8 15 30 33 35 0
8 15 30 33 36 0
8 15 30 35 36 0
8 15 33 35 36 0
8 21 26 30 33 0
8 21 26 30 35 0
8 21 26 30 36 0
8 21 26 33 35 0
8 21 26 33 36 0
8 21 26 35 36 0
8 21 30 33 35 0
8 21 30 33 36 0
8 21 30 35 36 0
8 21 33 35 36 0
8 26 30 33 35 0
8 26 30 33 36 0
8 26 30 35 36 0
8 26 33 35 36 0
8 30 33 35 36 0
15 21 26 30 33 0
15 21 26 30 35 0
15 21 26 30 36 0
15 21 26 33 35 0
15 21 26 33 36 0
15 21 26 35 36 0
15 21 30 33 35 0
15 21 30 33 36 0
15 21 30 35 36 0
15 21 33 35 36 0
15 26 30 33 35 0
15 26 30 33 36 0
15 26 30 35 36 0
15 26 33 35 36 0
15 30 33 35 36 0
21 26 30 33 35 0
21 26 30 33 36 0
21 26 30 35 36 0
21 26 33 35 36 0
21 30 33 35 36 0
26 30 33 35 36 0
-37 2 0
-37 9 0
37 -2 -9 0
-38 3 0
-38 10 0
38 -3 -10 0
-39 4 0
-39 11 0
39 -4 -11 0
-40 5 0
-40 12 0
40 -5 -12 0
-41 6 0
-41 13 0
41 -6 -13 0
-42 7 0
-42 14 0
42 -7 -14 0
-43 8 0
-43 15 0
43 -8 -15 0
-37 -38 -39 0
-37 -38 -40 0
-37 -38 -41 0
-37 -38 -42 0
-37 -38 -43 0
-37 -38 -1 0
-37 -39 -40 0
-37 -39 -41 0
-37 -39 -42 0
-37 -39 -43 0
-37 -39 -1 0
-37 -40 -41 0
-37 -40 -42 0
-37 -40 -43 0
-37 -40 -1 0
-37 -41 -42 0
-37 -41 -43 0
-37 -41 -1 0
-37 -42 -43 0
-37 -42 -1 0
-37 -43 -1 0
-38 -39 -40 0
-38 -39 -41 0
-38 -39 -42 0
-38 -39 -43 0
-38 -39 -1 0
-38 -40 -41 0
-38 -40 -42 0
-38 -40 -43 0
-38 -40 -1 0
-38 -41 -42 0
-38 -41 -43 0
-38 -41 -1 0
-38 -42 -43 0
-38 -42 -1 0
-38 -43 -1 0
-39 -40 -41 0
-39 -40 -42 0
-39 -40 -43 0
-39 -40 -1 0
-39 -41 -42 0
-39 -41 -43 0
-39 -41 -1 0
-39 -42 -43 0
-39 -42 -1 0
-39 -43 -1 0
-40 -41 -42 0
-40 -41 -43 0
-40 -41 -1 0
-40 -42 -43 0
-40 -42 -1 0
-40 -43 -1 0
-41 -42 -43 0
-41 -42 -1 0
-41 -43 -1 0
-42 -43 -1 0
-44 1 0
-44 9 0
44 -1 -9 0
-45 3 0
-45 16 0
45 -3 -16 0
-46 4 0
-46 17 0
46 -4 -17 0
-47 5 0
-47 18 0
47 -5 -18 0
-48 6 0
-48 19 0
48 -6 -19 0
-49 7 0
-49 20 0
49 -7 -20 0
-50 8 0
-50 21 0
50 -8 -21 0
-44 -45 -46 0
-44 -45 -47 0
-44 -45 -48 0
-44 -45 -49 0
-44 -45 -50 0
-44 -45 -2 0
-44 -46 -47 0
-44 -46 -48 0
-44 -46 -49 0
-44 -46 -50 0
-44 -46 -2 0
-44 -47 -48 0
-44 -47 -49 0
-44 -47 -50 0
-44 -47 -2 0
-44 -48 -49 0
-44 -48 -50 0
-44 -48 -2 0
-44 -49 -50 0
-44 -49 -2 0
-44 -50 -2 0
-45 -46 -47 0
-45 -46 -48 0
-45 -46 -49 0
-45 -46 -50 0
-45 -46 -2 0
-45 -47 -48 0
-45 -47 -49 0
-45 -47 -50 0
-45 -47 -2 0
-45 -48 -49 0
-45 -48 -50 0
-45 -48 -2 0
-45 -49 -50 0
-45 -49 -2 0
-45 -50 -2 0
-46 -47 -48 0
-46 -47 -49 0
-46 -47 -50 0
-46 -47 -2 0
-46 -48 -49 0
-46 -48 -50 0
-46 -48 -2 0
-46 -49 -50 0
-46 -49 -2 0
-46 -50 -2 0
-47 -48 -49 0
-47 -48 -50 0
-47 -48 -2 0
-47 -49 -50 0
-47 -49 -2 0
-47 -50 -2 0
-48 -49 -50 0
-48 -49 -2 0
-48 -50 -2 0
-49 -50 -2 0
-51 1 0
-51 10 0
51 -1 -10 0
-52 2 0
-52 16 0
52 -2 -16 0
-53 4 0
-53 22 0
53 -4 -22 0
-54 5 0
-54 23 0
54 -5 -23 0
-55 6 0
-55 24 0
55 -6 -24 0
-56 7 0
-56 25 0
56 -7 -25 0
-57 8 0
-57 26 0
57 -8 -26 0
-51 -52 -53 0
-51 -52 -54 0
-51 -52 -55 0
-51 -52 -56 0
-51 -52 -57 0
-51 -52 -3 0
-51 -53 -54 0
-51 -53 -55 0
-51 -53 -56 0
-51 -53 -57 0
-51 -53 -3 0
-51 -54 -55 0
-51 -54 -56 0
-51 -54 -57 0
-51 -54 -3 0
-51 -55 -56 0
-51 -55 -57 0
-51 -55 -3 0
-51 -56 -57 0
-51 -56 -3 0
-51 -57 -3 0
-52 -53 -54 0
-52 -53 -55 0
-52 -53 -56 0
-52 -53 -57 0
-52 -53 -3 0
-52 -54 -55 0
-52 -54 -56 0
-52 -54 -57 0
-52 -54 -3 0
-52 -55 -56 0
-52 -55 -57 0
-52 -55 -3 0
-52 -56 -57 0
-52 -56 -3 0
-52 -57 -3 0
-53 -54 -55 0
-53 -54 -56 0
-53 -54 -57 0
-53 -54 -3 0
-53 -55 -56 0
-53 -55 -57 0
-53 -55 -3 0
-53 -56 -57 0
-53 -56 -3 0
-53 -57 -3 0
-54 -55 -56 0
-54 -55 -57 0
-54 -55 -3 0
-54 -56 -57 0
-54 -56 -3 0
-54 -57 -3 0
-55 -56 -57 0
-55 -56 -3 0
-55 -57 -3 0
-56 -57 -3 0
-58 1 0
-58 11 0
58 -1 -11 0
-59 2 0
-59 17 0
59 -2 -17 0
-60 3 0
-60 22 0
60 -3 -22 0
-61 5 0
-61 27 0
61 -5 -27 0
-62 6 0
-62 28 0
62 -6 -28 0
-63 7 0
-63 29 0
63 -7 -29 0
-64 8 0
-64 30 0
64 -8 -30 0
-58 -59 -60 0
-58 -59 -61 0
-58 -59 -62 0
-58 -59 -63 0
-58 -59 -64 0
-58 -59 -4 0
-58 -60 -61 0
-58 -60 -62 0
-58 -60 -63 0
-58 -60 -64 0
-58 -60 -4 0
-58 -61 -62 0
-58 -61 -63 0
-58 -61 -64 0
-58 -61 -4 0
-58 -62 -63 0
-58 -62 -64 0
-58 -62 -4 0
-58 -63 -64 0
-58 -63 -4 0
-58 -64 -4 0
-59 -60 -61 0
-59 -60 -62 0
-59 -60 -63 0
-59 -60 -64 0
-59 -60 -4 0
-59 -61 -62 0
-59 -61 -63 0
-59 -61 -64 0
-59 -61 -4 0
-59 -62 -63 0
-59 -62 -64 0
-59 -62 -4 0
-59 -63 -64 0
-59 -63 -4 0
-59 -64 -4 0
-60 -61 -62 0
-60 -61 -63 0
-60 -61 -64 0
-60 -61 -4 0
-60 -62 -63 0
-60 -62 -64 0
-60 -62 -4 0
-60 -63 -64 0
-60 -63 -4 0
-60 -64 -4 0
-61 -62 -63 0
-61 -62 -64 0
-61 -62 -4 0
-61 -63 -64 0
-61 -63 -4 0
-61 -64 -4 0
-62 -63 -64 0
-62 -63 -4 0
-62 -64 -4 0
-63 -64 -4 0
-65 1 0
-65 12 0
65 -1 -12 0
-66 2 0
-66 18 0
66 -2 -18 0
-67 3 0
-67 23 0
67 -3 -23 0
-68 4 0
-68 27 0
68 -4 -27 0
-69 6 0
-69 31 0
69 -6 -31 0
-70 7 0
-70 32 0
70 -7 -32 0
-71 8 0
-71 33 0
71 -8 -33 0
-65 -66 -67 0
-65 -66 -68 0
-65 -66 -69 0
-65 -66 -70 0
-65 -66 -71 0
-65 -66 -5 0
-65 -67 -68 0
-65 -67 -69 0
-65 -67 -70 0
-65 -67 -71 0
-65 -67 -5 0
-65 -68 -69 0
-65 -68 -70 0
-65 -68 -71 0
-65 -68 -5 0
-65 -69 -70 0
-65 -69 -71 0
-65 -69 -5 0
-65 -70 -71 0
-65 -70 -5 0
-65 -71 -5 0
-66 -67 -68 0
-66 -67 -69 0
-66 -67 -70 0
-66 -67 -71 0
-66 -67 -5 0
-66 -68 -69 0
-66 -68 -70 0
-66 -68 -71 0
-66 -68 -5 0
-66 -69 -70 0
-66 -69 -71 0
-66 -69 -5 0
-66 -70 -71 0
-66 -70 -5 0
-66 -71 -5 0
-67 -68 -69 0
-67 -68 -70 0
-67 -68 -71 0
-67 -68 -5 0
-67 -69 -70 0
-67 -69 -71 0
-67 -69 -5 0
-67 -70 -71 0
-67 -70 -5 0
-67 -71 -5 0
-68 -69 -70 0
-68 -69 -71 0
-68 -69 -5 0
-68 -70 -71 0
-68 -70 -5 0
-68 -71 -5 0
-69 -70 -71 0
-69 -70 -5 0
-69 -71 -5 0
-70 -71 -5 0
-72 1 0
-72 13 0
72 -1 -13 0
-73 2 0
-73 19 0
73 -2 -19 0
-74 3 0
-74 24 0
74 -3 -24 0
-75 4 0
-75 28 0
75 -4 -28 0
-76 5 0
-76 31 0
76 -5 -31 0
-77 7 0
-77 34 0
77 -7 -34 0
-78 8 0
-78 35 0
78 -8 -35 0
-72 -73 -74 0
-72 -73 -75 0
-72 -73 -76 0
-72 -73 -77 0
-72 -73 -78 0
-72 -73 -6 0
-72 -74 -75 0
-72 -74 -76 0
-72 -74 -77 0
-72 -74 -78 0
-72 -74 -6 0
-72 -75 -76 0
-72 -75 -77 0
-72 -75 -78 0
-72 -75 -6 0
-72 -76 -77 0
-72 -76 -78 0
-72 -76 -6 0
-72 -77 -78 0
-72 -77 -6 0
-72 -78 -6 0
-73 -74 -75 0
-73 -74 -76 0
-73 -74 -77 0
-73 -74 -78 0
-73 -74 -6 0
-73 -75 -76 0
-73 -75 -77 0
-73 -75 -78 0
-73 -75 -6 0
-73 -76 -77 0
-73 -76 -78 0
-73 -76 -6 0
-73 -77 -78 0
-73 -77 -6 0
-73 -78 -6 0
-74 -75 -76 0
-74 -75 -77 0
-74 -75 -78 0
-74 -75 -6 0
-74 -76 -77 0
-74 -76 -78 0
-74 -76 -6 0
-74 -77 -78 0
-74 -77 -6 0
-74 -78 -6 0
-75 -76 -77 0
-75 -76 -78 0
-75 -76 -6 0
-75 -77 -78 0
-75 -77 -6 0
-75 -78 -6 0
-76 -77 -78 0
-76 -77 -6 0
-76 -78 -6 0
-77 -78 -6 0
-79 1 0
-79 14 0
79 -1 -14 0
-80 2 0
-80 20 0
80 -2 -20 0
-81 3 0
-81 25 0
81 -3 -25 0
-82 4 0
-82 29 0
82 -4 -29 0
-83 5 0
-83 32 0
83 -5 -32 0
-84 6 0
-84 34 0
84 -6 -34 0
-85 8 0
-85 36 0
85 -8 -36 0
-79 -80 -81 0
-79 -80 -82 0
-79 -80 -83 0
-79 -80 -84 0
-79 -80 -85 0
-79 -80 -7 0
-79 -81 -82 0
-79 -81 -83 0
-79 -81 -84 0
-79 -81 -85 0
-79 -81 -7 0
-79 -82 -83 0
-79 -82 -84 0
-79 -82 -85 0
-79 -82 -7 0
-79 -83 -84 0
-79 -83 -85 0
-79 -83 -7 0
-79 -84 -85 0
-79 -84 -7 0
-79 -85 -7 0
-80 -81 -82 0
-80 -81 -83 0
-80 -81 -84 0
-80 -81 -85 0
-80 -81 -7 0
-80 -82 -83 0
-80 -82 -84 0
-80 -82 -85 0
-80 -82 -7 0
-80 -83 -84 0
-80 -83 -85 0
-80 -83 -7 0
-80 -84 -85 0
-80 -84 -7 0
-80 -85 -7 0
-81 -82 -83 0
-81 -82 -84 0
-81 -82 -85 0
-81 -82 -7 0
-81 -83 -84 0
-81 -83 -85 0
-81 -83 -7 0
-81 -84 -85 0
-81 -84 -7 0
-81 -85 -7 0
-82 -83 -84 0
-82 -83 -85 0
-82 -83 -7 0
-82 -84 -85 0
-82 -84 -7 0
-82 -85 -7 0
-83 -84 -85 0
-83 -84 -7 0
-83 -85 -7 0
-84 -85 -7 0
-86 1 0
-86 15 0
86 -1 -15 0
-87 2 0
-87 21 0
87 -2 -21 0
-88 3 0
-88 26 0
88 -3 -26 0
-89 4 0
-89 30 0
89 -4 -30 0
-90 5 0
-90 33 0
90 -5 -33 0
-91 6 0
-91 35 0
91 -6 -35 0
-92 7 0
-92 36 0
92 -7 -36 0
-86 -87 -88 0
-86 -87 -89 0
-86 -87 -90 0
-86 -87 -91 0
-86 -87 -92 0
-86 -87 -8 0
-86 -88 -89 0
-86 -88 -90 0
-86 -88 -91 0
-86 -88 -92 0
-86 -88 -8 0
-86 -89 -90 0
-86 -89 -91 0
-86 -89 -92 0
-86 -89 -8 0
-86 -90 -91 0
-86 -90 -92 0
-86 -90 -8 0
-86 -91 -92 0
-86 -91 -8 0
-86 -92 -8 0
-87 -88 -89 0
-87 -88 -90 0
-87 -88 -91 0
-87 -88 -92 0
-87 -88 -8 0
-87 -89 -90 0
-87 -89 -91 0
-87 -89 -92 0
-87 -89 -8 0
-87 -90 -91 0
-87 -90 -92 0
-87 -90 -8 0
-87 -91 -92 0
-87 -91 -8 0
-87 -92 -8 0
-88 -89 -90 0
-88 -89 -91 0
-88 -89 -92 0
-88 -89 -8 0
-88 -90 -91 0
-88 -90 -92 0
-88 -90 -8 0
-88 -91 -92 0
-88 -91 -8 0
-88 -92 -8 0
-89 -90 -91 0
-89 -90 -92 0
-89 -90 -8 0
-89 -91 -92 0
-89 -91 -8 0
-89 -92 -8 0
-90 -91 -92 0
-90 -91 -8 0
-90 -92 -8 0
-91 -92 -8 0
-93 1 0
-93 2 0
93 -1 -2 0
-94 10 0
-94 16 0
94 -10 -16 0
-95 11 0
-95 17 0
95 -11 -17 0
-96 12 0
-96 18 0
96 -12 -18 0
-97 13 0
-97 19 0
97 -13 -19 0
-98 14 0
-98 20 0
98 -14 -20 0
-99 15 0
-99 21 0
99 -15 -21 0
-93 -94 -95 0
-93 -94 -96 0
-93 -94 -97 0
-93 -94 -98 0
-93 -94 -99 0
-93 -94 -9 0
-93 -95 -96 0
-93 -95 -97 0
-93 -95 -98 0
-93 -95 -99 0
-93 -95 -9 0
-93 -96 -97 0
-93 -96 -98 0
-93 -96 -99 0
-93 -96 -9 0
-93 -97 -98 0
-93 -97 -99 0
-93 -97 -9 0
-93 -98 -99 0
-93 -98 -9 0
-93 -99 -9 0
-94 -95 -96 0
-94 -95 -97 0
-94 -95 -98 0
-94 -95 -99 0
-94 -95 -9 0
-94 -96 -97 0
-94 -96 -98 0
-94 -96 -99 0
-94 -96 -9 0
-94 -97 -98 0
-94 -97 -99 0
-94 -97 -9 0
-94 -98 -99 0
-94 -98 -9 0
-94 -99 -9 0
-95 -96 -97 0
-95 -96 -98 0
-95 -96 -99 0
-95 -96 -9 0
-95 -97 -98 0
-95 -97 -99 0
-95 -97 -9 0
-95 -98 -99 0
-95 -98 -9 0
-95 -99 -9 0
-96 -97 -98 0
-96 -97 -99 0
-96 -97 -9 0
-96 -98 -99 0
-96 -98 -9 0
-96 -99 -9 0
-97 -98 -99 0
-97 -98 -9 0
-97 -99 -9 0
-98 -99 -9 0
-100 1 0
-100 3 0
100 -1 -3 0
-101 9 0
-101 16 0
101 -9 -16 0
-102 11 0
-102 22 0
102 -11 -22 0
-103 12 0
-103 23 0
103 -12 -23 0
-104 13 0
-104 24 0
104 -13 -24 0
-105 14 0
-105 25 0
105 -14 -25 0
-106 15 0
-106 26 0
106 -15 -26 0
-100 -101 -102 0
-100 -101 -103 0
-100 -101 -104 0
-100 -101 -105 0
-100 -101 -106 0
-100 -101 -10 0
-100 -102 -103 0
-100 -102 -104 0
-100 -102 -105 0
-100 -102 -106 0
-100 -102 -10 0
-100 -103 -104 0
-100 -103 -105 0
-100 -103 -106 0
-100 -103 -10 0
-100 -104 -105 0
-100 -104 -106 0
-100 -104 -10 0
-100 -105 -106 0
-100 -105 -10 0
-100 -106 -10 0
-101 -102 -103 0
-101 -102 -104 0
-101 -102 -105 0
-101 -102 -106 0
-101 -102 -10 0
-101 -103 -104 0
-101 -103 -105 0
-101 -103 -106 0
-101 -103 -10 0
-101 -104 -105 0
-101 -104 -106 0
-101 -104 -10 0
-101 -105 -106 0
-101 -105 -10 0
-101 -106 -10 0
-102 -103 -104 0
-102 -103 -105 0
-102 -103 -106 0
-102 -103 -10 0
-102 -104 -105 0
-102 -104 -106 0
-102 -104 -10 0
-102 -105 -106 0
-102 -105 -10 0
-102 -106 -10 0
-103 -104 -105 0
-103 -104 -106 0
-103 -104 -10 0
-103 -105 -106 0
-103 -105 -10 0
-103 -106 -10 0
-104 -105 -106 0
-104 -105 -10 0
-104 -106 -10 0
-105 -106 -10 0
-107 1 0
-107 4 0
107 -1 -4 0
-108 9 0
-108 17 0
108 -9 -17 0
-109 10 0
-109 22 0
109 -10 -22 0
-110 12 0
-110 27 0
110 -12 -27 0
-111 13 0
-111 28 0
111 -13 -28 0
-112 14 0
-112 29 0
112 -14 -29 0
-113 15 0
-113 30 0
113 -15 -30 0
-107 -108 -109 0
-107 -108 -110 0
-107 -108 -111 0
-107 -108 -112 0
-107 -108 -113 0
-107 -108 -11 0
-107 -109 -110 0
-107 -109 -111 0
-107 -109 -112 0
-107 -109 -113 0
-107 -109 -11 0
-107 -110 -111 0
-107 -110 -112 0
-107 -110 -113 0
-107 -110 -11 0
-107 -111 -112 0
-107 -111 -113 0
-107 -111 -11 0
-107 -112 -113 0
-107 -112 -11 0
-107 -113 -11 0
-108 -109 -110 0
-108 -109 -111 0
-108 -109 -112 0
-108 -109 -113 0
-108 -109 -11 0
-108 -110 -111 0
-108 -110 -112 0
-108 -110 -113 0
-108 -110 -11 0
-108 -111 -112 0
-108 -111 -113 0
-108 -111 -11 0
-108 -112 -113 0
-108 -112 -11 0
-108 -113 -11 0
-109 -110 -111 0
-109 -110 -112 0
-109 -110 -113 0
-109 -110 -11 0
-109 -111 -112 0
-109 -111 -113 0
-109 -111 -11 0
-109 -112 -113 0
-109 -112 -11 0
-109 -113 -11 0
-110 -111 -112 0
-110 -111 -113 0
-110 -111 -11 0
-110 -112 -113 0
-110 -112 -11 0
-110 -113 -11 0
-111 -112 -113 0
-111 -112 -11 0
-111 -113 -11 0
-112 -113 -11 0
-114 1 0
-114 5 0
114 -1 -5 0
-115 9 0
-115 18 0
115 -9 -18 0
-116 10 0
-116 23 0
116 -10 -23 0
-117 11 0
-117 27 0
117 -11 -27 0
-118 13 0
-118 31 0
118 -13 -31 0
-119 14 0
-119 32 0
119 -14 -32 0
-120 15 0
-120 33 0
120 -15 -33 0
-114 -115 -116 0
-114 -115 -117 0
-114 -115 -118 0
-114 -115 -119 0
-114 -115 -120 0
-114 -115 -12 0
-114 -116 -117 0
-114 -116 -118 0
-114 -116 -119 0
-114 -116 -120 0
-114 -116 -12 0
-114 -117 -118 0
-114 -117 -119 0
-114 -117 -120 0
-114 -117 -12 0
-114 -118 -119 0
-114 -118 -120 0
-114 -118 -12 0
-114 -119 -120 0
-114 -119 -12 0
-114 -120 -12 0
-115 -116 -117 0
-115 -116 -118 0
-115 -116 -119 0
-115 -116 -120 0
-115 -116 -12 0
-115 -117 -118 0
-115 -117 -119 0
-115 -117 -120 0
-115 -117 -12 0
-115 -118 -119 0
-115 -118 -120 0
-115 -118 -12 0
-115 -119 -120 0
-115 -119 -12 0
-115 -120 -12 0
-116 -117 -118 0
-116 -117 -119 0
-116 -117 -120 0
-116 -117 -12 0
-116 -118 -119 0
-116 -118 -120 0
-116 -118 -12 0
-116 -119 -120 0
-116 -119 -12 0
-116 -120 -12 0
-117 -118 -119 0
-117 -118 -120 0
-117 -118 -12 0
-117 -119 -120 0
-117 -119 -12 0
-117 -120 -12 0
-118 -119 -120 0
-118 -119 -12 0
-118 -120 -12 0
-119 -120 -12 0
-121 1 0
-121 6 0
121 -1 -6 0
-122 9 0
-122 19 0
122 -9 -19 0
-123 10 0
-123 24 0
123 -10 -24 0
-124 11 0
-124 28 0
124 -11 -28 0
-125 12 0
-125 31 0
125 -12 -31 0
-126 14 0
-126 34 0
126 -14 -34 0
-127 15 0
-127 35 0
127 -15 -35 0
-121 -122 -123 0
-121 -122 -124 0
-121 -122 -125 0
-121 -122 -126 0
-121 -122 -127 0
-121 -122 -13 0
-121 -123 -124 0
-121 -123 -125 0
-121 -123 -126 0
-121 -123 -127 0
-121 -123 -13 0
-121 -124 -125 0
-121 -124 -126 0
-121 -124 -127 0
-121 -124 -13 0
-121 -125 -126 0
-121 -125 -127 0
-121 -125 -13 0
-121 -126 -127 0
-121 -126 -13 0
-121 -127 -13 0
-122 -123 -124 0
-122 -123 -125 0
-122 -123 -126 0
-122 -123 -127 0
-122 -123 -13 0
-122 -124 -125 0
-122 -124 -126 0
-122 -124 -127 0
-122 -124 -13 0
-122 -125 -126 0
-122 -125 -127 0
-122 -125 -13 0
-122 -126 -127 0
-122 -126 -13 0
-122 -127 -13 0
-123 -124 -125 0
-123 -124 -126 0
-123 -124 -127 0
-123 -124 -13 0
-123 -125 -126 0
-123 -125 -127 0
-123 -125 -13 0
-123 -126 -127 0
-123 -126 -13 0
-123 -127 -13 0
-124 -125 -126 0
-124 -125 -127 0
-124 -125 -13 0
-124 -126 -127 0
-124 -126 -13 0
-124 -127 -13 0
-125 -126 -127 0
-125 -126 -13 0
-125 -127 -13 0
-126 -127 -13 0
-128 1 0
-128 7 0
128 -1 -7 0
-129 9 0
-129 20 0
129 -9 -20 0
-130 10 0
-130 25 0
130 -10 -25 0
-131 11 0
-131 29 0
131 -11 -29 0
-132 12 0
-132 32 0
132 -12 -32 0
-133 13 0
-133 34 0
133 -13 -34 0
-134 15 0
-134 36 0
134 -15 -36 0
-128 -129 -130 0
-128 -129 -131 0
-128 -129 -132 0
-128 -129 -133 0
-128 -129 -134 0
-128 -129 -14 0
-128 -130 -131 0
-128 -130 -132 0
-128 -130 -133 0
-128 -130 -134 0
-128 -130 -14 0
-128 -131 -132 0
-128 -131 -133 0
-128 -131 -134 0
-128 -131 -14 0
-128 -132 -133 0
-128 -132 -134 0
-128 -132 -14 0
-128 -133 -134 0
-128 -133 -14 0
-128 -134 -14 0
-129 -130 -131 0
-129 -130 -132 0
-129 -130 -133 0
-129 -130 -134 0
-129 -130 -14 0
-129 -131 -132 0
-129 -131 -133 0
-129 -131 -134 0
-129 -131 -14 0
-129 -132 -133 0
-129 -132 -134 0
-129 -132 -14 0
-129 -133 -134 0
-129 -133 -14 0
-129 -134 -14 0
-130 -131 -132 0
-130 -131 -133 0
-130 -131 -134 0
-130 -131 -14 0
-130 -132 -133 0
-130 -132 -134 0
-130 -132 -14 0
-130 -133 -134 0
-130 -133 -14 0
-130 -134 -14 0
-131 -132 -133 0
-131 -132 -134 0
-131 -132 -14 0
-131 -133 -134 0
-131 -133 -14 0
-131 -134 -14 0
-132 -133 -134 0
-132 -133 -14 0
-132 -134 -14 0
-133 -134 -14 0
-135 1 0
-135 8 0
135 -1 -8 0
-136 9 0
-136 21 0
136 -9 -21 0
-137 10 0
-137 26 0
137 -10 -26 0
-138 11 0
-138 30 0
138 -11 -30 0
-139 12 0
-139 33 0
139 -12 -33 0
-140 13 0
-140 35 0
140 -13 -35 0
-141 14 0
-141 36 0
141 -14 -36 0
-135 -136 -137 0
-135 -136 -138 0
-135 -136 -139 0
-135 -136 -140 0
-135 -136 -141 0
-135 -136 -15 0
-135 -137 -138 0
-135 -137 -139 0
-135 -137 -140 0
-135 -137 -141 0
-135 -137 -15 0
-135 -138 -139 0
-135 -138 -140 0
-135 -138 -141 0
-135 -138 -15 0
-135 -139 -140 0
-135 -139 -141 0
-135 -139 -15 0
-135 -140 -141 0
-135 -140 -15 0
-135 -141 -15 0
-136 -137 -138 0
-136 -137 -139 0
-136 -137 -140 0
-136 -137 -141 0
-136 -137 -15 0
-136 -138 -139 0
-136 -138 -140 0
-136 -138 -141 0
-136 -138 -15 0
-136 -139 -140 0
-136 -139 -141 0
-136 -139 -15 0
-136 -140 -141 0
-136 -140 -15 0
-136 -141 -15 0
-137 -138 -139 0
-137 -138 -140 0
-137 -138 -141 0
-137 -138 -15 0
-137 -139 -140 0
-137 -139 -141 0
-137 -139 -15 0
-137 -140 -141 0
-137 -140 -15 0
-137 -141 -15 0
-138 -139 -140 0
-138 -139 -141 0
-138 -139 -15 0
-138 -140 -141 0
-138 -140 -15 0
-138 -141 -15 0
-139 -140 -141 0
-139 -140 -15 0
-139 -141 -15 0
-140 -141 -15 0
-142 2 0
-142 3 0
142 -2 -3 0
-143 9 0
-143 10 0
143 -9 -10 0
-144 17 0
-144 22 0
144 -17 -22 0
-145 18 0
-145 23 0
145 -18 -23 0
-146 19 0
-146 24 0
146 -19 -24 0
-147 20 0
-147 25 0
147 -20 -25 0
-148 21 0
-148 26 0
148 -21 -26 0
-142 -143 -144 0
-142 -143 -145 0
-142 -143 -146 0
-142 -143 -147 0
-142 -143 -148 0
-142 -143 -16 0
-142 -144 -145 0
-142 -144 -146 0
-142 -144 -147 0
-142 -144 -148 0
-142 -144 -16 0
-142 -145 -146 0
-142 -145 -147 0
-142 -145 -148 0
-142 -145 -16 0
-142 -146 -147 0
-142 -146 -148 0
-142 -146 -16 0
-142 -147 -148 0
-142 -147 -16 0
-142 -148 -16 0
-143 -144 -145 0
-143 -144 -146 0
-143 -144 -147 0
-143 -144 -148 0
-143 -144 -16 0
-143 -145 -146 0
-143 -145 -147 0
-143 -145 -148 0
-143 -145 -16 0
-143 -146 -147 0
-143 -146 -148 0
-143 -146 -16 0
-143 -147 -148 0
-143 -147 -16 0
-143 -148 -16 0
-144 -145 -146 0
-144 -145 -147 0
-144 -145 -148 0
-144 -145 -16 0
-144 -146 -147 0
-144 -146 -148 0
-144 -146 -16 0
-144 -147 -148 0
-144 -147 -16 0
-144 -148 -16 0
-145 -146 -147 0
-145 -146 -148 0
-145 -146 -16 0
-145 -147 -148 0
-145 -147 -16 0
-145 -148 -16 0
-146 -147 -148 0
-146 -147 -16 0
-146 -148 -16 0
-147 -148 -16 0
-149 2 0
-149 4 0
149 -2 -4 0
-150 9 0
-150 11 0
150 -9 -11 0
-151 16 0
-151 22 0
151 -16 -22 0
-152 18 0
-152 27 0
152 -18 -27 0
-153 19 0
-153 28 0
153 -19 -28 0
-154 20 0
-154 29 0
154 -20 -29 0
-155 21 0
-155 30 0
155 -21 -30 0
-149 -150 -151 0
-149 -150 -152 0
-149 -150 -153 0
-149 -150 -154 0
-149 -150 -155 0
-149 -150 -17 0
-149 -151 -152 0
-149 -151 -153 0
-149 -151 -154 0
-149 -151 -155 0
-149 -151 -17 0
-149 -152 -153 0
-149 -152 -154 0
-149 -152 -155 0
-149 -152 -17 0
-149 -153 -154 0
-149 -153 -155 0
-149 -153 -17 0
-149 -154 -155 0
-149 -154 -17 0
-149 -155 -17 0
-150 -151 -152 0
-150 -151 -153 0
-150 -151 -154 0
-150 -151 -155 0
-150 -151 -17 0
-150 -152 -153 0
-150 -152 -154 0
-150 -152 -155 0
-150 -152 -17 0
-150 -153 -154 0
-150 -153 -155 0
-150 -153 -17 0
-150 -154 -155 0
-150 -154 -17 0
-150 -155 -17 0
-151 -152 -153 0
-151 -152 -154 0
-151 -152 -155 0
-151 -152 -17 0
-151 -153 -154 0
-151 -153 -155 0
-151 -153 -17 0
-151 -154 -155 0
-151 -154 -17 0
-151 -155 -17 0
-152 -153 -154 0
-152 -153 -155 0
-152 -153 -17 0
-152 -154 -155 0
-152 -154 -17 0
-152 -155 -17 0
-153 -154 -155 0
-153 -154 -17 0
-153 -155 -17 0
-154 -155 -17 0
-156 2 0
-156 5 0
156 -2 -5 0
-157 9 0
-157 12 0
157 -9 -12 0
-158 16 0
-158 23 0
158 -16 -23 0
-159 17 0
-159 27 0
159 -17 -27 0
-160 19 0
-160 31 0
160 -19 -31 0
-161 20 0
-161 32 0
161 -20 -32 0
-162 21 0
-162 33 0
162 -21 -33 0
-156 -157 -158 0
-156 -157 -159 0
-156 -157 -160 0
-156 -157 -161 0
-156 -157 -162 0
-156 -157 -18 0
-156 -158 -159 0
-156 -158 -160 0
-156 -158 -161 0
-156 -158 -162 0
-156 -158 -18 0
-156 -159 -160 0
-156 -159 -161 0
-156 -159 -162 0
-156 -159 -18 0
-156 -160 -161 0
-156 -160 -162 0
-156 -160 -18 0
-156 -161 -162 0
-156 -161 -18 0
-156 -162 -18 0
-157 -158 -159 0
-157 -158 -160 0
-157 -158 -161 0
-157 -158 -162 0
-157 -158 -18 0
-157 -159 -160 0
-157 -159 -161 0
-157 -159 -162 0
-157 -159 -18 0
-157 -160 -161 0
-157 -160 -162 0
-157 -160 -18 0
-157 -161 -162 0
-157 -161 -18 0
-157 -162 -18 0
-158 -159 -160 0
-158 -159 -161 0
-158 -159 -162 0
-158 -159 -18 0
-158 -160 -161 0
-158 -160 -162 0
-158 -160 -18 0
-158 -161 -162 0
-158 -161 -18 0
-158 -162 -18 0
-159 -160 -161 0
-159 -160 -162 0
-159 -160 -18 0
-159 -161 -162 0
-159 -161 -18 0
-159 -162 -18 0
-160 -161 -162 0
-160 -161 -18 0
-160 -162 -18 0
-161 -162 -18 0
-163 2 0
-163 6 0
163 -2 -6 0
-164 9 0
-164 13 0
164 -9 -13 0
-165 16 0
-165 24 0
165 -16 -24 0
-166 17 0
-166 28 0
166 -17 -28 0
-167 18 0
-167 31 0
167 -18 -31 0
-168 20 0
-168 34 0
168 -20 -34 0
-169 21 0
-169 35 0
169 -21 -35 0
-163 -164 -165 0
-163 -164 -166 0
-163 -164 -167 0
-163 -164 -168 0
-163 -164 -169 0
-163 -164 -19 0
-163 -165 -166 0
-163 -165 -167 0
-163 -165 -168 0
-163 -165 -169 0
-163 -165 -19 0
-163 -166 -167 0
-163 -166 -168 0
-163 -166 -169 0
-163 -166 -19 0
-163 -167 -168 0
-163 -167 -169 0
-163 -167 -19 0
-163 -168 -169 0
-163 -168 -19 0
-163 -169 -19 0
-164 -165 -166 0
-164 -165 -167 0
-164 -165 -168 0
-164 -165 -169 0
-164 -165 -19 0
-164 -166 -167 0
-164 -166 -168 0
-164 -166 -169 0
-164 -166 -19 0
-164 -167 -168 0
-164 -167 -169 0
-164 -167 -19 0
-164 -168 -169 0
-164 -168 -19 0
-164 -169 -19 0
-165 -166 -167 0
-165 -166 -168 0
-165 -166 -169 0
-165 -166 -19 0
-165 -167 -168 0
-165 -167 -169 0
-165 -167 -19 0
-165 -168 -169 0
-165 -168 -19 0
-165 -169 -19 0
-166 -167 -168 0
-166 -167 -169 0
-166 -167 -19 0
-166 -168 -169 0
-166 -168 -19 0
-166 -169 -19 0
-167 -168 -169 0
-167 -168 -19 0
-167 -169 -19 0
-168 -169 -19 0
-170 2 0
-170 7 0
170 -2 -7 0
-171 9 0
-171 14 0
171 -9 -14 0
-172 16 0
-172 25 0
172 -16 -25 0
-173 17 0
-173 29 0
173 -17 -29 0
-174 18 0
-174 32 0
174 -18 -32 0
-175 19 0
-175 34 0
175 -19 -34 0
-176 21 0
-176 36 0
176 -21 -36 0
-170 -171 -172 0
-170 -171 -173 0
-170 -171 -174 0
-170 -171 -175 0
-170 -171 -176 0
-170 -171 -20 0
-170 -172 -173 0
-170 -172 -174 0
-170 -172 -175 0
-170 -172 -176 0
-170 -172 -20 0
-170 -173 -174 0
-170 -173 -175 0
-170 -173 -176 0
-170 -173 -20 0
-170 -174 -175 0
-170 -174 -176 0
-170 -174 -20 0
-170 -175 -176 0
-170 -175 -20 0
-170 -176 -20 0
-171 -172 -173 0
-171 -172 -174 0
-171 -172 -175 0
-171 -172 -176 0
-171 -172 -20 0
-171 -173 -174 0
-171 -173 -175 0
-171 -173 -176 0
-171 -173 -20 0
-171 -174 -175 0
-171 -174 -176 0
-171 -174 -20 0
-171 -175 -176 0
-171 -175 -20 0
-171 -176 -20 0
-172 -173 -174 0
-172 -173 -175 0
-172 -173 -176 0
-172 -173 -20 0
-172 -174 -175 0
-172 -174 -176 0
-172 -174 -20 0
-172 -175 -176 0
-172 -175 -20 0
-172 -176 -20 0
-173 -174 -175 0
-173 -174 -176 0
-173 -174 -20 0
-173 -175 -176 0
-173 -175 -20 0
-173 -176 -20 0
-174 -175 -176 0
-174 -175 -20 0
-174 -176 -20 0
-175 -176 -20 0
-177 2 0
-177 8 0
177 -2 -8 0
-178 9 0
-178 15 0
178 -9 -15 0
-179 16 0
-179 26 0
179 -16 -26 0
-180 17 0
-180 30 0
180 -17 -30 0
-181 18 0
-181 33 0
181 -18 -33 0
-182 19 0
-182 35 0
182 -19 -35 0
-183 20 0
-183 36 0
183 -20 -36 0
-177 -178 -179 0
-177 -178 -180 0
-177 -178 -181 0
-177 -178 -182 0
-177 -178 -183 0
-177 -178 -21 0
-177 -179 -180 0
-177 -179 -181 0
-177 -179 -182 0
-177 -179 -183 0
-177 -179 -21 0
-177 -180 -181 0
-177 -180 -182 0
-177 -180 -183 0
-177 -180 -21 0
-177 -181 -182 0
-177 -181 -183 0
-177 -181 -21 0
-177 -182 -183 0
-177 -182 -21 0
-177 -183 -21 0
-178 -179 -180 0
-178 -179 -181 0
-178 -179 -182 0
-178 -179 -183 0
-178 -179 -21 0
-178 -180 -181 0
-178 -180 -182 0
-178 -180 -183 0
-178 -180 -21 0
-178 -181 -182 0
-178 -181 -183 0
-178 -181 -21 0
-178 -182 -183 0
-178 -182 -21 0
-178 -183 -21 0
-179 -180 -181 0
-179 -180 -182 0
-179 -180 -183 0
-179 -180 -21 0
-179 -181 -182 0
-179 -181 -183 0
-179 -181 -21 0
-179 -182 -183 0
-179 -182 -21 0
-179 -183 -21 0
-180 -181 -182 0
-180 -181 -183 0
-180 -181 -21 0
-180 -182 -183 0
-180 -182 -21 0
-180 -183 -21 0
-181 -182 -183 0
-181 -182 -21 0
-181 -183 -21 0
-182 -183 -21 0
-184 3 0
-184 4 0
184 -3 -4 0
-185 10 0
-185 11 0
185 -10 -11 0
-186 16 0
-186 17 0
186 -16 -17 0
-187 23 0
-187 27 0
187 -23 -27 0
-188 24 0
-188 28 0
188 -24 -28 0
-189 25 0
-189 29 0
189 -25 -29 0
-190 26 0
-190 30 0
190 -26 -30 0
-184 -185 -186 0
-184 -185 -187 0
-184 -185 -188 0
-184 -185 -189 0
-184 -185 -190 0
-184 -185 -22 0
-184 -186 -187 0
-184 -186 -188 0
-184 -186 -189 0
-184 -186 -190 0
-184 -186 -22 0
-184 -187 -188 0
-184 -187 -189 0
-184 -187 -190 0
-184 -187 -22 0
-184 -188 -189 0
-184 -188 -190 0
-184 -188 -22 0
-184 -189 -190 0
-184 -189 -22 0
-184 -190 -22 0
-185 -186 -187 0
-185 -186 -188 0
-185 -186 -189 0
-185 -186 -190 0
-185 -186 -22 0
-185 -187 -188 0
-185 -187 -189 0
-185 -187 -190 0
-185 -187 -22 0
-185 -188 -189 0
-185 -188 -190 0
-185 -188 -22 0
-185 -189 -190 0
-185 -189 -22 0
-185 -190 -22 0
-186 -187 -188 0
-186 -187 -189 0
-186 -187 -190 0
-186 -187 -22 0
-186 -188 -189 0
-186 -188 -190 0
-186 -188 -22 0
-186 -189 -190 0
-186 -189 -22 0
-186 -190 -22 0
-187 -188 -189 0
-187 -188 -190 0
-187 -188 -22 0
-187 -189 -190 0
-187 -189 -22 0
-187 -190 -22 0
-188 -189 -190 0
-188 -189 -22 0
-188 -190 -22 0
-189 -190 -22 0
-191 3 0
-191 5 0
191 -3 -5 0
-192 10 0
-192 12 0
192 -10 -12 0
-193 16 0
-193 18 0
193 -16 -18 0
-194 22 0
-194 27 0
194 -22 -27 0
-195 24 0
-195 31 0
195 -24 -31 0
-196 25 0
-196 32 0
196 -25 -32 0
-197 26 0
-197 33 0
197 -26 -33 0
-191 -192 -193 0
-191 -192 -194 0
-191 -192 -195 0
-191 -192 -196 0
-191 -192 -197 0
-191 -192 -23 0
-191 -193 -194 0
-191 -193 -195 0
-191 -193 -196 0
-191 -193 -197 0
-191 -193 -23 0
-191 -194 -195 0
-191 -194 -196 0
-191 -194 -197 0
-191 -194 -23 0
-191 -195 -196 0
-191 -195 -197 0
-191 -195 -23 0
-191 -196 -197 0
-191 -196 -23 0
-191 -197 -23 0
-192 -193 -194 0
-192 -193 -195 0
-192 -193 -196 0
-192 -193 -197 0
-192 -193 -23 0
-192 -194 -195 0
-192 -194 -196 0
-192 -194 -197 0
-192 -194 -23 0
-192 -195 -196 0
-192 -195 -197 0
-192 -195 -23 0
-192 -196 -197 0
-192 -196 -23 0
-192 -197 -23 0
-193 -194 -195 0
-193 -194 -196 0
-193 -194 -197 0
-193 -194 -23 0
-193 -195 -196 0
-193 -195 -197 0
-193 -195 -23 0
-193 -196 -197 0
-193 -196 -23 0
-193 -197 -23 0
-194 -195 -196 0
-194 -195 -197 0
-194 -195 -23 0
-194 -196 -197 0
-194 -196 -23 0
-194 -197 -23 0
-195 -196 -197 0
-195 -196 -23 0
-195 -197 -23 0
-196 -197 -23 0
-198 3 0
-198 6 0
198 -3 -6 0
-199 10 0
-199 13 0
199 -10 -13 0
-200 16 0
-200 19 0
200 -16 -19 0
-201 22 0
-201 28 0
201 -22 -28 0
-202 23 0
-202 31 0
202 -23 -31 0
-203 25 0
-203 34 0
203 -25 -34 0
-204 26 0
-204 35 0
204 -26 -35 0
-198 -199 -200 0
-198 -199 -201 0
-198 -199 -202 0
-198 -199 -203 0
-198 -199 -204 0
-198 -199 -24 0
-198 -200 -201 0
-198 -200 -202 0
-198 -200 -203 0
-198 -200 -204 0
-198 -200 -24 0
-198 -201 -202 0
-198 -201 -203 0
-198 -201 -204 0
-198 -201 -24 0
-198 -202 -203 0
-198 -202 -204 0
-198 -202 -24 0
-198 -203 -204 0
-198 -203 -24 0
-198 -204 -24 0
-199 -200 -201 0
-199 -200 -202 0
-199 -200 -203 0
-199 -200 -204 0
-199 -200 -24 0
-199 -201 -202 0
-199 -201 -203 0
-199 -201 -204 0
-199 -201 -24 0
-199 -202 -203 0
-199 -202 -204 0
-199 -202 -24 0
-199 -203 -204 0
-199 -203 -24 0
-199 -204 -24 0
-200 -201 -202 0
-200 -201 -203 0
-200 -201 -204 0
-200 -201 -24 0
-200 -202 -203 0
-200 -202 -204 0
-200 -202 -24 0
-200 -203 -204 0
-200 -203 -24 0
-200 -204 -24 0
-201 -202 -203 0
-201 -202 -204 0
-201 -202 -24 0
-201 -203 -204 0
-201 -203 -24 0
-201 -204 -24 0
-202 -203 -204 0
-202 -203 -24 0
-202 -204 -24 0
-203 -204 -24 0
-205 3 0
-205 7 0
205 -3 -7 0
-206 10 0
-206 14 0
206 -10 -14 0
-207 16 0
-207 20 0
207 -16 -20 0
-208 22 0
-208 29 0
208 -22 -29 0
-209 23 0
-209 32 0
209 -23 -32 0
-210 24 0
-210 34 0
210 -24 -34 0
-211 26 0
-211 36 0
211 -26 -36 0
-205 -206 -207 0
-205 -206 -208 0
-205 -206 -209 0
-205 -206 -210 0
-205 -206 -211 0
-205 -206 -25 0
-205 -207 -208 0
-205 -207 -209 0
-205 -207 -210 0
-205 -207 -211 0
-205 -207 -25 0
-205 -208 -209 0
-205 -208 -210 0
-205 -208 -211 0
-205 -208 -25 0
-205 -209 -210 0
-205 -209 -211 0
-205 -209 -25 0
-205 -210 -211 0
-205 -210 -25 0
-205 -211 -25 0
-206 -207 -208 0
-206 -207 -209 0
-206 -207 -210 0
-206 -207 -211 0
-206 -207 -25 0
-206 -208 -209 0
-206 -208 -210 0
-206 -208 -211 0
-206 -208 -25 0
-206 -209 -210 0
-206 -209 -211 0
-206 -209 -25 0
-206 -210 -211 0
-206 -210 -25 0
-206 -211 -25 0
-207 -208 -209 0
-207 -208 -210 0
-207 -208 -211 0
-207 -208 -25 0
-207 -209 -210 0
-207 -209 -211 0
-207 -209 -25 0
-207 -210 -211 0
-207 -210 -25 0
-207 -211 -25 0
-208 -209 -210 0
-208 -209 -211 0
-208 -209 -25 0
-208 -210 -211 0
-208 -210 -25 0
-208 -211 -25 0
-209 -210 -211 0
-209 -210 -25 0
-209 -211 -25 0
-210 -211 -25 0
-212 3 0
-212 8 0
212 -3 -8 0
-213 10 0
-213 15 0
213 -10 -15 0
-214 16 0
-214 21 0
214 -16 -21 0
-215 22 0
-215 30 0
215 -22 -30 0
-216 23 0
-216 33 0
216 -23 -33 0
-217 24 0
-217 35 0
217 -24 -35 0
-218 25 0
-218 36 0
218 -25 -36 0
-212 -213 -214 0
-212 -213 -215 0
-212 -213 -216 0
-212 -213 -217 0
-212 -213 -218 0
-212 -213 -26 0
-212 -214 -215 0
-212 -214 -216 0
-212 -214 -217 0
-212 -214 -218 0
-212 -214 -26 0
-212 -215 -216 0
-212 -215 -217 0
-212 -215 -218 0
-212 -215 -26 0
-212 -216 -217 0
-212 -216 -218 0
-212 -216 -26 0
-212 -217 -218 0
-212 -217 -26 0
-212 -218 -26 0
-213 -214 -215 0
-213 -214 -216 0
-213 -214 -217 0
-213 -214 -218 0
-213 -214 -26 0
-213 -215 -216 0
-213 -215 -217 0
-213 -215 -218 0
-213 -215 -26 0
-213 -216 -217 0
-213 -216 -218 0
-213 -216 -26 0
-213 -217 -218 0
-213 -217 -26 0
-213 -218 -26 0
-214 -215 -216 0
-214 -215 -217 0
-214 -215 -218 0
-214 -215 -26 0
-214 -216 -217 0
-214 -216 -218 0
-214 -216 -26 0
-214 -217 -218 0
-214 -217 -26 0
-214 -218 -26 0
-215 -216 -217 0
-215 -216 -218 0
-215 -216 -26 0
-215 -217 -218 0
-215 -217 -26 0
-215 -218 -26 0
-216 -217 -218 0
-216 -217 -26 0
-216 -218 -26 0
-217 -218 -26 0
-219 4 0
-219 5 0
219 -4 -5 0
-220 11 0
-220 12 0
220 -11 -12 0
-221 17 0
-221 18 0
221 -17 -18 0
-222 22 0
-222 23 0
222 -22 -23 0
-223 28 0
-223 31 0
223 -28 -31 0
-224 29 0
-224 32 0
224 -29 -32 0
-225 30 0
-225 33 0
225 -30 -33 0
-219 -220 -221 0
-219 -220 -222 0
-219 -220 -223 0
-219 -220 -224 0
-219 -220 -225 0
-219 -220 -27 0
-219 -221 -222 0
-219 -221 -223 0
-219 -221 -224 0
-219 -221 -225 0
-219 -221 -27 0
-219 -222 -223 0
-219 -222 -224 0
-219 -222 -225 0
-219 -222 -27 0
-219 -223 -224 0
-219 -223 -225 0
-219 -223 -27 0
-219 -224 -225 0
-219 -224 -27 0
-219 -225 -27 0
-220 -221 -222 0
-220 -221 -223 0
-220 -221 -224 0
-220 -221 -225 0
-220 -221 -27 0
-220 -222 -223 0
-220 -222 -224 0
-220 -222 -225 0
-220 -222 -27 0
-220 -223 -224 0
-220 -223 -225 0
-220 -223 -27 0
-220 -224 -225 0
-220 -224 -27 0
-220 -225 -27 0
-221 -222 -223 0
-221 -222 -224 0
-221 -222 -225 0
-221 -222 -27 0
-221 -223 -224 0
-221 -223 -225 0
-221 -223 -27 0
-221 -224 -225 0
-221 -224 -27 0
-221 -225 -27 0
-222 -223 -224 0
-222 -223 -225 0
-222 -223 -27 0
-222 -224 -225 0
-222 -224 -27 0
-222 -225 -27 0
-223 -224 -225 0
-223 -224 -27 0
-223 -225 -27 0
-224 -225 -27 0
-226 4 0
-226 6 0
226 -4 -6 0
-227 11 0
-227 13 0
227 -11 -13 0
-228 17 0
-228 19 0
228 -17 -19 0
-229 22 0
-229 24 0
229 -22 -24 0
-230 27 0
-230 31 0
230 -27 -31 0
-231 29 0
-231 34 0
231 -29 -34 0
-232 30 0
-232 35 0
232 -30 -35 0
-226 -227 -228 0
-226 -227 -229 0
-226 -227 -230 0
-226 -227 -231 0
-226 -227 -232 0
-226 -227 -28 0
-226 -228 -229 0
-226 -228 -230 0
-226 -228 -231 0
-226 -228 -232 0
-226 -228 -28 0
-226 -229 -230 0
-226 -229 -231 0
-226 -229 -232 0
-226 -229 -28 0
-226 -230 -231 0
-226 -230 -232 0
-226 -230 -28 0
-226 -231 -232 0
-226 -231 -28 0
-226 -232 -28 0
-227 -228 -229 0
-227 -228 -230 0
-227 -228 -231 0
-227 -228 -232 0
-227 -228 -28 0
-227 -229 -230 0
-227 -229 -231 0
-227 -229 -232 0
-227 -229 -28 0
-227 -230 -231 0
-227 -230 -232 0
-227 -230 -28 0
-227 -231 -232 0
-227 -231 -28 0
-227 -232 -28 0
-228 -229 -230 0
-228 -229 -231 0
-228 -229 -232 0
-228 -229 -28 0
-228 -230 -231 0
-228 -230 -232 0
-228 -230 -28 0
-228 -231 -232 0
-228 -231 -28 0
-228 -232 -28 0
-229 -230 -231 0
-229 -230 -232 0
-229 -230 -28 0
-229 -231 -232 0
-229 -231 -28 0
-229 -232 -28 0
-230 -231 -232 0
-230 -231 -28 0
-230 -232 -28 0
-231 -232 -28 0
-233 4 0
-233 7 0
233 -4 -7 0
-234 11 0
-234 14 0
234 -11 -14 0
-235 17 0
-235 20 0
235 -17 -20 0
-236 22 0
-236 25 0
236 -22 -25 0
-237 27 0
-237 32 0
237 -27 -32 0
-238 28 0
-238 34 0
238 -28 -34 0
-239 30 0
-239 36 0
239 -30 -36 0
-233 -234 -235 0
-233 -234 -236 0
-233 -234 -237 0
-233 -234 -238 0
-233 -234 -239 0
-233 -234 -29 0
-233 -235 -236 0
-233 -235 -237 0
-233 -235 -238 0
-233 -235 -239 0
-233 -235 -29 0
-233 -236 -237 0
-233 -236 -238 0
-233 -236 -239 0
-233 -236 -29 0
-233 -237 -238 0
-233 -237 -239 0
-233 -237 -29 0
-233 -238 -239 0
-233 -238 -29 0
-233 -239 -29 0
-234 -235 -236 0
-234 -235 -237 0
-234 -235 -238 0
-234 -235 -239 0
-234 -235 -29 0
-234 -236 -237 0
-234 -236 -238 0
-234 -236 -239 0
-234 -236 -29 0
-234 -237 -238 0
-234 -237 -239 0
-234 -237 -29 0
-234 -238 -239 0
-234 -238 -29 0
-234 -239 -29 0
-235 -236 -237 0
-235 -236 -238 0
-235 -236 -239 0
-235 -236 -29 0
-235 -237 -238 0
-235 -237 -239 0
-235 -237 -29 0
-235 -238 -239 0
-235 -238 -29 0
-235 -239 -29 0
-236 -237 -238 0
-236 -237 -239 0
-236 -237 -29 0
-236 -238 -239 0
-236 -238 -29 0
-236 -239 -29 0
-237 -238 -239 0
-237 -238 -29 0
-237 -239 -29 0
-238 -239 -29 0
-240 4 0
-240 8 0
240 -4 -8 0
-241 11 0
-241 15 0
241 -11 -15 0
-242 17 0
-242 21 0
242 -17 -21 0
-243 22 0
-243 26 0
243 -22 -26 0
-244 27 0
-244 33 0
244 -27 -33 0
-245 28 0
-245 35 0
245 -28 -35 0
-246 29 0
-246 36 0
246 -29 -36 0
-240 -241 -242 0
-240 -241 -243 0
-240 -241 -244 0
-240 -241 -245 0
-240 -241 -246 0
-240 -241 -30 0
-240 -242 -243 0
-240 -242 -244 0
-240 -242 -245 0
-240 -242 -246 0
-240 -242 -30 0
-240 -243 -244 0
-240 -243 -245 0
-240 -243 -246 0
-240 -243 -30 0
-240 -244 -245 0
-240 -244 -246 0
-240 -244 -30 0
-240 -245 -246 0
-240 -245 -30 0
-240 -246 -30 0
-241 -242 -243 0
-241 -242 -244 0
-241 -242 -245 0
-241 -242 -246 0
-241 -242 -30 0
-241 -243 -244 0
-241 -243 -245 0
-241 -243 -246 0
-241 -243 -30 0
-241 -244 -245 0
-241 -244 -246 0
-241 -244 -30 0
-241 -245 -246 0
-241 -245 -30 0
-241 -246 -30 0
-242 -243 -244 0
-242 -243 -245 0
-242 -243 -246 0
-242 -243 -30 0
-242 -244 -245 0
-242 -244 -246 0
-242 -244 -30 0
-242 -245 -246 0
-242 -245 -30 0
-242 -246 -30 0
-243 -244 -245 0
-243 -244 -246 0
-243 -244 -30 0
-243 -245 -246 0
-243 -245 -30 0
-243 -246 -30 0
-244 -245 -246 0
-244 -245 -30 0
-244 -246 -30 0
-245 -246 -30 0
-247 5 0
-247 6 0
247 -5 -6 0
-248 12 0
-248 13 0
248 -12 -13 0
-249 18 0
-249 19 0
249 -18 -19 0
-250 23 0
-250 24 0
250 -23 -24 0
-251 27 0
-251 28 0
251 -27 -28 0
-252 32 0
-252 34 0
252 -32 -34 0
-253 33 0
-253 35 0
253 -33 -35 0
-247 -248 -249 0
-247 -248 -250 0
-247 -248 -251 0
-247 -248 -252 0
-247 -248 -253 0
-247 -248 -31 0
-247 -249 -250 0
-247 -249 -251 0
-247 -249 -252 0
-247 -249 -253 0
-247 -249 -31 0
-247 -250 -251 0
-247 -250 -252 0
-247 -250 -253 0
-247 -250 -31 0
-247 -251 -252 0
-247 -251 -253 0
-247 -251 -31 0
-247 -252 -253 0
-247 -252 -31 0
-247 -253 -31 0
-248 -249 -250 0
-248 -249 -251 0
-248 -249 -252 0
-248 -249 -253 0
-248 -249 -31 0
-248 -250 -251 0
-248 -250 -252 0
-248 -250 -253 0
-248 -250 -31 0
-248 -251 -252 0
-248 -251 -253 0
-248 -251 -31 0
-248 -252 -253 0
-248 -252 -31 0
-248 -253 -31 0
-249 -250 -251 0
-249 -250 -252 0
-249 -250 -253 0
-249 -250 -31 0
-249 -251 -252 0
-249 -251 -253 0
-249 -251 -31 0
-249 -252 -253 0
-249 -252 -31 0
-249 -253 -31 0
-250 -251 -252 0
-250 -251 -253 0
-250 -251 -31 0
-250 -252 -253 0
-250 -252 -31 0
-250 -253 -31 0
-251 -252 -253 0
-251 -252 -31 0
-251 -253 -31 0
-252 -253 -31 0
-254 5 0
-254 7 0
254 -5 -7 0
-255 12 0
-255 14 0
255 -12 -14 0
-256 18 0
-256 20 0
256 -18 -20 0
-257 23 0
-257 25 0
257 -23 -25 0
-258 27 0
-258 29 0
258 -27 -29 0
-259 31 0
-259 34 0
259 -31 -34 0
-260 33 0
-260 36 0
260 -33 -36 0
-254 -255 -256 0
-254 -255 -257 0
-254 -255 -258 0
-254 -255 -259 0
-254 -255 -260 0
-254 -255 -32 0
-254 -256 -257 0
-254 -256 -258 0
-254 -256 -259 0
-254 -256 -260 0
-254 -256 -32 0
-254 -257 -258 0
-254 -257 -259 0
-254 -257 -260 0
-254 -257 -32 0
-254 -258 -259 0
-254 -258 -260 0
-254 -258 -32 0
-254 -259 -260 0
-254 -259 -32 0
-254 -260 -32 0
-255 -256 -257 0
-255 -256 -258 0
-255 -256 -259 0
-255 -256 -260 0
-255 -256 -32 0
-255 -257 -258 0
-255 -257 -259 0
-255 -257 -260 0
-255 -257 -32 0
-255 -258 -259 0
-255 -258 -260 0
-255 -258 -32 0
-255 -259 -260 0
-255 -259 -32 0
-255 -260 -32 0
-256 -257 -258 0
-256 -257 -259 0
-256 -257 -260 0
-256 -257 -32 0
-256 -258 -259 0
-256 -258 -260 0
-256 -258 -32 0
-256 -259 -260 0
-256 -259 -32 0
-256 -260 -32 0
-257 -258 -259 0
-257 -258 -260 0
-257 -258 -32 0
-257 -259 -260 0
-257 -259 -32 0
-257 -260 -32 0
-258 -259 -260 0
-258 -259 -32 0
-258 -260 -32 0
-259 -260 -32 0
-261 5 0
-261 8 0
261 -5 -8 0
-262 12 0
-262 15 0
262 -12 -15 0
-263 18 0
-263 21 0
263 -18 -21 0
-264 23 0
-264 26 0
264 -23 -26 0
-265 27 0
-265 30 0
265 -27 -30 0
-266 31 0
-266 35 0
266 -31 -35 0
-267 32 0
-267 36 0
267 -32 -36 0
-261 -262 -263 0
-261 -262 -264 0
-261 -262 -265 0
-261 -262 -266 0
-261 -262 -267 0
-261 -262 -33 0
-261 -263 -264 0
-261 -263 -265 0
-261 -263 -266 0
-261 -263 -267 0
-261 -263 -33 0
-261 -264 -265 0
-261 -264 -266 0
-261 -264 -267 0
-261 -264 -33 0
-261 -265 -266 0
-261 -265 -267 0
-261 -265 -33 0
-261 -266 -267 0
-261 -266 -33 0
-261 -267 -33 0
-262 -263 -264 0
-262 -263 -265 0
-262 -263 -266 0
-262 -263 -267 0
-262 -263 -33 0
-262 -264 -265 0
-262 -264 -266 0
-262 -264 -267 0
-262 -264 -33 0
-262 -265 -266 0
-262 -265 -267 0
-262 -265 -33 0
-262 -266 -267 0
-262 -266 -33 0
-262 -267 -33 0
-263 -264 -265 0
-263 -264 -266 0
-263 -264 -267 0
-263 -264 -33 0
-263 -265 -266 0
-263 -265 -267 0
-263 -265 -33 0
-263 -266 -267 0
-263 -266 -33 0
-263 -267 -33 0
-264 -265 -266 0
-264 -265 -267 0
-264 -265 -33 0
-264 -266 -267 0
-264 -266 -33 0
-264 -267 -33 0
-265 -266 -267 0
-265 -266 -33 0
-265 -267 -33 0
-266 -267 -33 0
-268 6 0
-268 7 0
268 -6 -7 0
-269 13 0
-269 14 0
269 -13 -14 0
-270 19 0
-270 20 0
270 -19 -20 0
-271 24 0
-271 25 0
271 -24 -25 0
-272 28 0
-272 29 0
272 -28 -29 0
-273 31 0
-273 32 0
273 -31 -32 0
-274 35 0
-274 36 0
274 -35 -36 0
-268 -269 -270 0
-268 -269 -271 0
-268 -269 -272 0
-268 -269 -273 0
-268 -269 -274 0
-268 -269 -34 0
-268 -270 -271 0
-268 -270 -272 0
-268 -270 -273 0
-268 -270 -274 0
-268 -270 -34 0
-268 -271 -272 0
-268 -271 -273 0
-268 -271 -274 0
-268 -271 -34 0
-268 -272 -273 0
-268 -272 -274 0
-268 -272 -34 0
-268 -273 -274 0
-268 -273 -34 0
-268 -274 -34 0
-269 -270 -271 0
-269 -270 -272 0
-269 -270 -273 0
-269 -270 -274 0
-269 -270 -34 0
-269 -271 -272 0
-269 -271 -273 0
-269 -271 -274 0
-269 -271 -34 0
-269 -272 -273 0
-269 -272 -274 0
-269 -272 -34 0
-269 -273 -274 0
-269 -273 -34 0
-269 -274 -34 0
-270 -271 -272 0
-270 -271 -273 0
-270 -271 -274 0
-270 -271 -34 0
-270 -272 -273 0
-270 -272 -274 0
-270 -272 -34 0
-270 -273 -274 0
-270 -273 -34 0
-270 -274 -34 0
-271 -272 -273 0
-271 -272 -274 0
-271 -272 -34 0
-271 -273 -274 0
-271 -273 -34 0
-271 -274 -34 0
-272 -273 -274 0
-272 -273 -34 0
-272 -274 -34 0
-273 -274 -34 0
-275 6 0
-275 8 0
275 -6 -8 0
-276 13 0
-276 15 0
276 -13 -15 0
-277 19 0
-277 21 0
277 -19 -21 0
-278 24 0
-278 26 0
278 -24 -26 0
-279 28 0
-279 30 0
279 -28 -30 0
-280 31 0
-280 33 0
280 -31 -33 0
-281 34 0
-281 36 0
281 -34 -36 0
-275 -276 -277 0
-275 -276 -278 0
-275 -276 -279 0
-275 -276 -280 0
-275 -276 -281 0
-275 -276 -35 0
-275 -277 -278 0
-275 -277 -279 0
-275 -277 -280 0
-275 -277 -281 0
-275 -277 -35 0
-275 -278 -279 0
-275 -278 -280 0
-275 -278 -281 0
-275 -278 -35 0
-275 -279 -280 0
-275 -279 -281 0
-275 -279 -35 0
-275 -280 -281 0
-275 -280 -35 0
-275 -281 -35 0
-276 -277 -278 0
-276 -277 -279 0
-276 -277 -280 0
-276 -277 -281 0
-276 -277 -35 0
-276 -278 -279 0
-276 -278 -280 0
-276 -278 -281 0
-276 -278 -35 0
-276 -279 -280 0
-276 -279 -281 0
-276 -279 -35 0
-276 -280 -281 0
-276 -280 -35 0
-276 -281 -35 0
-277 -278 -279 0
-277 -278 -280 0
-277 -278 -281 0
-277 -278 -35 0
-277 -279 -280 0
-277 -279 -281 0
-277 -279 -35 0
-277 -280 -281 0
-277 -280 -35 0
-277 -281 -35 0
-278 -279 -280 0
-278 -279 -281 0
-278 -279 -35 0
-278 -280 -281 0
-278 -280 -35 0
-278 -281 -35 0
-279 -280 -281 0
-279 -280 -35 0
-279 -281 -35 0
-280 -281 -35 0
-282 7 0
-282 8 0
282 -7 -8 0
-283 14 0
-283 15 0
283 -14 -15 0
-284 20 0
-284 21 0
284 -20 -21 0
-285 25 0
-285 26 0
285 -25 -26 0
-286 29 0
-286 30 0
286 -29 -30 0
-287 32 0
-287 33 0
287 -32 -33 0
-288 34 0
-288 35 0
288 -34 -35 0
-282 -283 -284 0
-282 -283 -285 0
-282 -283 -286 0
-282 -283 -287 0
-282 -283 -288 0
-282 -283 -36 0
-282 -284 -285 0
-282 -284 -286 0
-282 -284 -287 0
-282 -284 -288 0
-282 -284 -36 0
-282 -285 -286 0
-282 -285 -287 0
-282 -285 -288 0
-282 -285 -36 0
-282 -286 -287 0
-282 -286 -288 0
-282 -286 -36 0
-282 -287 -288 0
-282 -287 -36 0
-282 -288 -36 0
-283 -284 -285 0
-283 -284 -286 0
-283 -284 -287 0
-283 -284 -288 0
-283 -284 -36 0
-283 -285 -286 0
-283 -285 -287 0
-283 -285 -288 0
-283 -285 -36 0
-283 -286 -287 0
-283 -286 -288 0
-283 -286 -36 0
-283 -287 -288 0
-283 -287 -36 0
-283 -288 -36 0
-284 -285 -286 0
-284 -285 -287 0
-284 -285 -288 0
-284 -285 -36 0
-284 -286 -287 0
-284 -286 -288 0
-284 -286 -36 0
-284 -287 -288 0
-284 -287 -36 0
-284 -288 -36 0
-285 -286 -287 0
-285 -286 -288 0
-285 -286 -36 0
-285 -287 -288 0
-285 -287 -36 0
-285 -288 -36 0
-286 -287 -288 0
-286 -287 -36 0
-286 -288 -36 0
-287 -288 -36 0
