p cnf 520 4542
1 2 3 4 5 6 7 8 9 10 11 0
-1 -2 0
-1 -3 0
-1 -4 0
-1 -5 0
-1 -6 0
-1 -7 0
-1 -8 0
-1 -9 0
-1 -10 0
-1 -11 0
-2 -3 0
-2 -4 0
-2 -5 0
-2 -6 0
-2 -7 0
-2 -8 0
-2 -9 0
-2 -10 0
-2 -11 0
-3 -4 0
-3 -5 0
-3 -6 0
-3 -7 0
-3 -8 0
-3 -9 0
-3 -10 0
-3 -11 0
-4 -5 0
-4 -6 0
-4 -7 0
-4 -8 0
-4 -9 0
-4 -10 0
-4 -11 0
-5 -6 0
-5 -7 0
-5 -8 0
-5 -9 0
-5 -10 0
-5 -11 0
-6 -7 0
-6 -8 0
-6 -9 0
-6 -10 0
-6 -11 0
-7 -8 0
-7 -9 0
-7 -10 0
-7 -11 0
-8 -9 0
-8 -10 0
-8 -11 0
-9 -10 0
-9 -11 0
-10 -11 0
12 13 14 15 16 17 18 19 20 21 22 0
-12 -13 0
-12 -14 0
-12 -15 0
-12 -16 0
-12 -17 0
-12 -18 0
-12 -19 0
-12 -20 0
-12 -21 0
-12 -22 0
-13 -14 0
-13 -15 0
-13 -16 0
-13 -17 0
-13 -18 0
-13 -19 0
-13 -20 0
-13 -21 0
-13 -22 0
-14 -15 0
-14 -16 0
-14 -17 0
-14 -18 0
-14 -19 0
-14 -20 0
-14 -21 0
-14 -22 0
-15 -16 0
-15 -17 0
-15 -18 0
-15 -19 0
-15 -20 0
-15 -21 0
-15 -22 0
-16 -17 0
-16 -18 0
-16 -19 0
-16 -20 0
-16 -21 0
-16 -22 0
-17 -18 0
-17 -19 0
-17 -20 0
-17 -21 0
-17 -22 0
-18 -19 0
-18 -20 0
-18 -21 0
-18 -22 0
-19 -20 0
-19 -21 0
-19 -22 0
-20 -21 0
-20 -22 0
-21 -22 0
23 24 25 26 27 28 29 30 31 32 33 0
-23 -24 0
-23 -25 0
-23 -26 0
-23 -27 0
-23 -28 0
-23 -29 0
-23 -30 0
-23 -31 0
-23 -32 0
-23 -33 0
-24 -25 0
-24 -26 0
-24 -27 0
-24 -28 0
-24 -29 0
-24 -30 0
-24 -31 0
-24 -32 0
-24 -33 0
-25 -26 0
-25 -27 0
-25 -28 0
-25 -29 0
-25 -30 0
-25 -31 0
-25 -32 0
-25 -33 0
-26 -27 0
-26 -28 0
-26 -29 0
-26 -30 0
-26 -31 0
-26 -32 0
-26 -33 0
-27 -28 0
-27 -29 0
-27 -30 0
-27 -31 0
-27 -32 0
-27 -33 0
-28 -29 0
-28 -30 0
-28 -31 0
-28 -32 0
-28 -33 0
-29 -30 0
-29 -31 0
-29 -32 0
-29 -33 0
-30 -31 0
-30 -32 0
-30 -33 0
-31 -32 0
-31 -33 0
-32 -33 0
34 35 36 37 38 39 40 41 42 43 44 0
-34 -35 0
-34 -36 0
-34 -37 0
-34 -38 0
-34 -39 0
-34 -40 0
-34 -41 0
-34 -42 0
-34 -43 0
-34 -44 0
-35 -36 0
-35 -37 0
-35 -38 0
-35 -39 0
-35 -40 0
-35 -41 0
-35 -42 0
-35 -43 0
-35 -44 0
-36 -37 0
-36 -38 0
-36 -39 0
-36 -40 0
-36 -41 0
-36 -42 0
-36 -43 0
-36 -44 0
-37 -38 0
-37 -39 0
-37 -40 0
-37 -41 0
-37 -42 0
-37 -43 0
-37 -44 0
-38 -39 0
-38 -40 0
-38 -41 0
-38 -42 0
-38 -43 0
-38 -44 0
-39 -40 0
-39 -41 0
-39 -42 0
-39 -43 0
-39 -44 0
-40 -41 0
-40 -42 0
-40 -43 0
-40 -44 0
-41 -42 0
-41 -43 0
-41 -44 0
-42 -43 0
-42 -44 0
-43 -44 0
45 46 47 48 49 50 51 52 53 54 55 0
-45 -46 0
-45 -47 0
-45 -48 0
-45 -49 0
-45 -50 0
-45 -51 0
-45 -52 0
-45 -53 0
-45 -54 0
-45 -55 0
-46 -47 0
-46 -48 0
-46 -49 0
-46 -50 0
-46 -51 0
-46 -52 0
-46 -53 0
-46 -54 0
-46 -55 0
-47 -48 0
-47 -49 0
-47 -50 0
-47 -51 0
-47 -52 0
-47 -53 0
-47 -54 0
-47 -55 0
-48 -49 0
-48 -50 0
-48 -51 0
-48 -52 0
-48 -53 0
-48 -54 0
-48 -55 0
-49 -50 0
-49 -51 0
-49 -52 0
-49 -53 0
-49 -54 0
-49 -55 0
-50 -51 0
-50 -52 0
-50 -53 0
-50 -54 0
-50 -55 0
-51 -52 0
-51 -53 0
-51 -54 0
-51 -55 0
-52 -53 0
-52 -54 0
-52 -55 0
-53 -54 0
-53 -55 0
-54 -55 0
56 57 58 59 60 61 62 63 64 65 66 0
-56 -57 0
-56 -58 0
-56 -59 0
-56 -60 0
-56 -61 0
-56 -62 0
-56 -63 0
-56 -64 0
-56 -65 0
-56 -66 0
-57 -58 0
-57 -59 0
-57 -60 0
-57 -61 0
-57 -62 0
-57 -63 0
-57 -64 0
-57 -65 0
-57 -66 0
-58 -59 0
-58 -60 0
-58 -61 0
-58 -62 0
-58 -63 0
-58 -64 0
-58 -65 0
-58 -66 0
-59 -60 0
-59 -61 0
-59 -62 0
-59 -63 0
-59 -64 0
-59 -65 0
-59 -66 0
-60 -61 0
-60 -62 0
-60 -63 0
-60 -64 0
-60 -65 0
-60 -66 0
-61 -62 0
-61 -63 0
-61 -64 0
-61 -65 0
-61 -66 0
-62 -63 0
-62 -64 0
-62 -65 0
-62 -66 0
-63 -64 0
-63 -65 0
-63 -66 0
-64 -65 0
-64 -66 0
-65 -66 0
67 68 69 70 71 72 73 74 75 76 77 0
-67 -68 0
-67 -69 0
-67 -70 0
-67 -71 0
-67 -72 0
-67 -73 0
-67 -74 0
-67 -75 0
-67 -76 0
-67 -77 0
-68 -69 0
-68 -70 0
-68 -71 0
-68 -72 0
-68 -73 0
-68 -74 0
-68 -75 0
-68 -76 0
-68 -77 0
-69 -70 0
-69 -71 0
-69 -72 0
-69 -73 0
-69 -74 0
-69 -75 0
-69 -76 0
-69 -77 0
-70 -71 0
-70 -72 0
-70 -73 0
-70 -74 0
-70 -75 0
-70 -76 0
-70 -77 0
-71 -72 0
-71 -73 0
-71 -74 0
-71 -75 0
-71 -76 0
-71 -77 0
-72 -73 0
-72 -74 0
-72 -75 0
-72 -76 0
-72 -77 0
-73 -74 0
-73 -75 0
-73 -76 0
-73 -77 0
-74 -75 0
-74 -76 0
-74 -77 0
-75 -76 0
-75 -77 0
-76 -77 0
78 79 80 81 82 83 84 85 86 87 88 0
-78 -79 0
-78 -80 0
-78 -81 0
-78 -82 0
-78 -83 0
-78 -84 0
-78 -85 0
-78 -86 0
-78 -87 0
-78 -88 0
-79 -80 0
-79 -81 0
-79 -82 0
-79 -83 0
-79 -84 0
-79 -85 0
-79 -86 0
-79 -87 0
-79 -88 0
-80 -81 0
-80 -82 0
-80 -83 0
-80 -84 0
-80 -85 0
-80 -86 0
-80 -87 0
-80 -88 0
-81 -82 0
-81 -83 0
-81 -84 0
-81 -85 0
-81 -86 0
-81 -87 0
-81 -88 0
-82 -83 0
-82 -84 0
-82 -85 0
-82 -86 0
-82 -87 0
-82 -88 0
-83 -84 0
-83 -85 0
-83 -86 0
-83 -87 0
-83 -88 0
-84 -85 0
-84 -86 0
-84 -87 0
-84 -88 0
-85 -86 0
-85 -87 0
-85 -88 0
-86 -87 0
-86 -88 0
-87 -88 0
89 90 91 92 93 94 95 96 97 98 99 0
-89 -90 0
-89 -91 0
-89 -92 0
-89 -93 0
-89 -94 0
-89 -95 0
-89 -96 0
-89 -97 0
-89 -98 0
-89 -99 0
-90 -91 0
-90 -92 0
-90 -93 0
-90 -94 0
-90 -95 0
-90 -96 0
-90 -97 0
-90 -98 0
-90 -99 0
-91 -92 0
-91 -93 0
-91 -94 0
-91 -95 0
-91 -96 0
-91 -97 0
-91 -98 0
-91 -99 0
-92 -93 0
-92 -94 0
-92 -95 0
-92 -96 0
-92 -97 0
-92 -98 0
-92 -99 0
-93 -94 0
-93 -95 0
-93 -96 0
-93 -97 0
-93 -98 0
-93 -99 0
-94 -95 0
-94 -96 0
-94 -97 0
-94 -98 0
-94 -99 0
-95 -96 0
-95 -97 0
-95 -98 0
-95 -99 0
-96 -97 0
-96 -98 0
-96 -99 0
-97 -98 0
-97 -99 0
-98 -99 0
100 101 102 103 104 105 106 107 108 109 110 0
-100 -101 0
-100 -102 0
-100 -103 0
-100 -104 0
-100 -105 0
-100 -106 0
-100 -107 0
-100 -108 0
-100 -109 0
-100 -110 0
-101 -102 0
-101 -103 0
-101 -104 0
-101 -105 0
-101 -106 0
-101 -107 0
-101 -108 0
-101 -109 0
-101 -110 0
-102 -103 0
-102 -104 0
-102 -105 0
-102 -106 0
-102 -107 0
-102 -108 0
-102 -109 0
-102 -110 0
-103 -104 0
-103 -105 0
-103 -106 0
-103 -107 0
-103 -108 0
-103 -109 0
-103 -110 0
-104 -105 0
-104 -106 0
-104 -107 0
-104 -108 0
-104 -109 0
-104 -110 0
-105 -106 0
-105 -107 0
-105 -108 0
-105 -109 0
-105 -110 0
-106 -107 0
-106 -108 0
-106 -109 0
-106 -110 0
-107 -108 0
-107 -109 0
-107 -110 0
-108 -109 0
-108 -110 0
-109 -110 0
111 112 113 114 115 116 117 118 119 120 121 0
-111 -112 0
-111 -113 0
-111 -114 0
-111 -115 0
-111 -116 0
-111 -117 0
-111 -118 0
-111 -119 0
-111 -120 0
-111 -121 0
-112 -113 0
-112 -114 0
-112 -115 0
-112 -116 0
-112 -117 0
-112 -118 0
-112 -119 0
-112 -120 0
-112 -121 0
-113 -114 0
-113 -115 0
-113 -116 0
-113 -117 0
-113 -118 0
-113 -119 0
-113 -120 0
-113 -121 0
-114 -115 0
-114 -116 0
-114 -117 0
-114 -118 0
-114 -119 0
-114 -120 0
-114 -121 0
-115 -116 0
-115 -117 0
-115 -118 0
-115 -119 0
-115 -120 0
-115 -121 0
-116 -117 0
-116 -118 0
-116 -119 0
-116 -120 0
-116 -121 0
-117 -118 0
-117 -119 0
-117 -120 0
-117 -121 0
-118 -119 0
-118 -120 0
-118 -121 0
-119 -120 0
-119 -121 0
-120 -121 0
122 123 124 125 126 127 128 129 130 131 132 0
-122 -123 0
-122 -124 0
-122 -125 0
-122 -126 0
-122 -127 0
-122 -128 0
-122 -129 0
-122 -130 0
-122 -131 0
-122 -132 0
-123 -124 0
-123 -125 0
-123 -126 0
-123 -127 0
-123 -128 0
-123 -129 0
-123 -130 0
-123 -131 0
-123 -132 0
-124 -125 0
-124 -126 0
-124 -127 0
-124 -128 0
-124 -129 0
-124 -130 0
-124 -131 0
-124 -132 0
-125 -126 0
-125 -127 0
-125 -128 0
-125 -129 0
-125 -130 0
-125 -131 0
-125 -132 0
-126 -127 0
-126 -128 0
-126 -129 0
-126 -130 0
-126 -131 0
-126 -132 0
-127 -128 0
-127 -129 0
-127 -130 0
-127 -131 0
-127 -132 0
-128 -129 0
-128 -130 0
-128 -131 0
-128 -132 0
-129 -130 0
-129 -131 0
-129 -132 0
-130 -131 0
-130 -132 0
-131 -132 0
133 134 135 136 137 138 139 140 141 142 143 0
-133 -134 0
-133 -135 0
-133 -136 0
-133 -137 0
-133 -138 0
-133 -139 0
-133 -140 0
-133 -141 0
-133 -142 0
-133 -143 0
-134 -135 0
-134 -136 0
-134 -137 0
-134 -138 0
-134 -139 0
-134 -140 0
-134 -141 0
-134 -142 0
-134 -143 0
-135 -136 0
-135 -137 0
-135 -138 0
-135 -139 0
-135 -140 0
-135 -141 0
-135 -142 0
-135 -143 0
-136 -137 0
-136 -138 0
-136 -139 0
-136 -140 0
-136 -141 0
-136 -142 0
-136 -143 0
-137 -138 0
-137 -139 0
-137 -140 0
-137 -141 0
-137 -142 0
-137 -143 0
-138 -139 0
-138 -140 0
-138 -141 0
-138 -142 0
-138 -143 0
-139 -140 0
-139 -141 0
-139 -142 0
-139 -143 0
-140 -141 0
-140 -142 0
-140 -143 0
-141 -142 0
-141 -143 0
-142 -143 0
144 145 146 147 148 149 150 151 152 153 154 0
-144 -145 0
-144 -146 0
-144 -147 0
-144 -148 0
-144 -149 0
-144 -150 0
-144 -151 0
-144 -152 0
-144 -153 0
-144 -154 0
-145 -146 0
-145 -147 0
-145 -148 0
-145 -149 0
-145 -150 0
-145 -151 0
-145 -152 0
-145 -153 0
-145 -154 0
-146 -147 0
-146 -148 0
-146 -149 0
-146 -150 0
-146 -151 0
-146 -152 0
-146 -153 0
-146 -154 0
-147 -148 0
-147 -149 0
-147 -150 0
-147 -151 0
-147 -152 0
-147 -153 0
-147 -154 0
-148 -149 0
-148 -150 0
-148 -151 0
-148 -152 0
-148 -153 0
-148 -154 0
-149 -150 0
-149 -151 0
-149 -152 0
-149 -153 0
-149 -154 0
-150 -151 0
-150 -152 0
-150 -153 0
-150 -154 0
-151 -152 0
-151 -153 0
-151 -154 0
-152 -153 0
-152 -154 0
-153 -154 0
155 156 157 158 159 160 161 162 163 164 165 0
-155 -156 0
-155 -157 0
-155 -158 0
-155 -159 0
-155 -160 0
-155 -161 0
-155 -162 0
-155 -163 0
-155 -164 0
-155 -165 0
-156 -157 0
-156 -158 0
-156 -159 0
-156 -160 0
-156 -161 0
-156 -162 0
-156 -163 0
-156 -164 0
-156 -165 0
-157 -158 0
-157 -159 0
-157 -160 0
-157 -161 0
-157 -162 0
-157 -163 0
-157 -164 0
-157 -165 0
-158 -159 0
-158 -160 0
-158 -161 0
-158 -162 0
-158 -163 0
-158 -164 0
-158 -165 0
-159 -160 0
-159 -161 0
-159 -162 0
-159 -163 0
-159 -164 0
-159 -165 0
-160 -161 0
-160 -162 0
-160 -163 0
-160 -164 0
-160 -165 0
-161 -162 0
-161 -163 0
-161 -164 0
-161 -165 0
-162 -163 0
-162 -164 0
-162 -165 0
-163 -164 0
-163 -165 0
-164 -165 0
166 167 168 169 170 171 172 173 174 175 176 0
-166 -167 0
-166 -168 0
-166 -169 0
-166 -170 0
-166 -171 0
-166 -172 0
-166 -173 0
-166 -174 0
-166 -175 0
-166 -176 0
-167 -168 0
-167 -169 0
-167 -170 0
-167 -171 0
-167 -172 0
-167 -173 0
-167 -174 0
-167 -175 0
-167 -176 0
-168 -169 0
-168 -170 0
-168 -171 0
-168 -172 0
-168 -173 0
-168 -174 0
-168 -175 0
-168 -176 0
-169 -170 0
-169 -171 0
-169 -172 0
-169 -173 0
-169 -174 0
-169 -175 0
-169 -176 0
-170 -171 0
-170 -172 0
-170 -173 0
-170 -174 0
-170 -175 0
-170 -176 0
-171 -172 0
-171 -173 0
-171 -174 0
-171 -175 0
-171 -176 0
-172 -173 0
-172 -174 0
-172 -175 0
-172 -176 0
-173 -174 0
-173 -175 0
-173 -176 0
-174 -175 0
-174 -176 0
-175 -176 0
177 178 179 180 181 182 183 184 185 186 187 0
-177 -178 0
-177 -179 0
-177 -180 0
-177 -181 0
-177 -182 0
-177 -183 0
-177 -184 0
-177 -185 0
-177 -186 0
-177 -187 0
-178 -179 0
-178 -180 0
-178 -181 0
-178 -182 0
-178 -183 0
-178 -184 0
-178 -185 0
-178 -186 0
-178 -187 0
-179 -180 0
-179 -181 0
-179 -182 0
-179 -183 0
-179 -184 0
-179 -185 0
-179 -186 0
-179 -187 0
-180 -181 0
-180 -182 0
-180 -183 0
-180 -184 0
-180 -185 0
-180 -186 0
-180 -187 0
-181 -182 0
-181 -183 0
-181 -184 0
-181 -185 0
-181 -186 0
-181 -187 0
-182 -183 0
-182 -184 0
-182 -185 0
-182 -186 0
-182 -187 0
-183 -184 0
-183 -185 0
-183 -186 0
-183 -187 0
-184 -185 0
-184 -186 0
-184 -187 0
-185 -186 0
-185 -187 0
-186 -187 0
188 189 190 191 192 193 194 195 196 197 198 0
-188 -189 0
-188 -190 0
-188 -191 0
-188 -192 0
-188 -193 0
-188 -194 0
-188 -195 0
-188 -196 0
-188 -197 0
-188 -198 0
-189 -190 0
-189 -191 0
-189 -192 0
-189 -193 0
-189 -194 0
-189 -195 0
-189 -196 0
-189 -197 0
-189 -198 0
-190 -191 0
-190 -192 0
-190 -193 0
-190 -194 0
-190 -195 0
-190 -196 0
-190 -197 0
-190 -198 0
-191 -192 0
-191 -193 0
-191 -194 0
-191 -195 0
-191 -196 0
-191 -197 0
-191 -198 0
-192 -193 0
-192 -194 0
-192 -195 0
-192 -196 0
-192 -197 0
-192 -198 0
-193 -194 0
-193 -195 0
-193 -196 0
-193 -197 0
-193 -198 0
-194 -195 0
-194 -196 0
-194 -197 0
-194 -198 0
-195 -196 0
-195 -197 0
-195 -198 0
-196 -197 0
-196 -198 0
-197 -198 0
199 200 201 202 203 204 205 206 207 208 209 0
-199 -200 0
-199 -201 0
-199 -202 0
-199 -203 0
-199 -204 0
-199 -205 0
-199 -206 0
-199 -207 0
-199 -208 0
-199 -209 0
-200 -201 0
-200 -202 0
-200 -203 0
-200 -204 0
-200 -205 0
-200 -206 0
-200 -207 0
-200 -208 0
-200 -209 0
-201 -202 0
-201 -203 0
-201 -204 0
-201 -205 0
-201 -206 0
-201 -207 0
-201 -208 0
-201 -209 0
-202 -203 0
-202 -204 0
-202 -205 0
-202 -206 0
-202 -207 0
-202 -208 0
-202 -209 0
-203 -204 0
-203 -205 0
-203 -206 0
-203 -207 0
-203 -208 0
-203 -209 0
-204 -205 0
-204 -206 0
-204 -207 0
-204 -208 0
-204 -209 0
-205 -206 0
-205 -207 0
-205 -208 0
-205 -209 0
-206 -207 0
-206 -208 0
-206 -209 0
-207 -208 0
-207 -209 0
-208 -209 0
210 211 212 213 214 215 216 217 218 219 220 0
-210 -211 0
-210 -212 0
-210 -213 0
-210 -214 0
-210 -215 0
-210 -216 0
-210 -217 0
-210 -218 0
-210 -219 0
-210 -220 0
-211 -212 0
-211 -213 0
-211 -214 0
-211 -215 0
-211 -216 0
-211 -217 0
-211 -218 0
-211 -219 0
-211 -220 0
-212 -213 0
-212 -214 0
-212 -215 0
-212 -216 0
-212 -217 0
-212 -218 0
-212 -219 0
-212 -220 0
-213 -214 0
-213 -215 0
-213 -216 0
-213 -217 0
-213 -218 0
-213 -219 0
-213 -220 0
-214 -215 0
-214 -216 0
-214 -217 0
-214 -218 0
-214 -219 0
-214 -220 0
-215 -216 0
-215 -217 0
-215 -218 0
-215 -219 0
-215 -220 0
-216 -217 0
-216 -218 0
-216 -219 0
-216 -220 0
-217 -218 0
-217 -219 0
-217 -220 0
-218 -219 0
-218 -220 0
-219 -220 0
-6 221 0
-7 221 0
-8 221 0
-9 221 0
-10 221 0
-11 221 0
-221 6 7 8 9 10 11 0
-72 222 0
-73 222 0
-74 222 0
-75 222 0
-76 222 0
-77 222 0
-222 72 73 74 75 76 77 0
-83 223 0
-84 223 0
-85 223 0
-86 223 0
-87 223 0
-88 223 0
-223 83 84 85 86 87 88 0
-94 224 0
-95 224 0
-96 224 0
-97 224 0
-98 224 0
-99 224 0
-224 94 95 96 97 98 99 0
-204 225 0
-205 225 0
-206 225 0
-207 225 0
-208 225 0
-209 225 0
-225 204 205 206 207 208 209 0
221 222 223 224 -225 0
221 222 223 -224 225 0
221 222 223 -224 -225 0
221 222 -223 224 225 0
221 222 -223 224 -225 0
221 222 -223 -224 225 0
221 -222 223 224 225 0
221 -222 223 224 -225 0
221 -222 223 -224 225 0
221 -222 -223 224 225 0
221 -222 -223 -224 -225 0
-221 222 223 224 225 0
-221 222 223 224 -225 0
-221 222 223 -224 225 0
-221 222 -223 224 225 0
-221 222 -223 -224 -225 0
-221 -222 223 224 225 0
-221 -222 223 -224 -225 0
-221 -222 -223 224 -225 0
-221 -222 -223 -224 225 0
-221 -222 -223 -224 -225 0
-28 226 0
-29 226 0
-30 226 0
-31 226 0
-32 226 0
-33 226 0
-226 28 29 30 31 32 33 0
-61 227 0
-62 227 0
-63 227 0
-64 227 0
-65 227 0
-66 227 0
-227 61 62 63 64 65 66 0
-116 228 0
-117 228 0
-118 228 0
-119 228 0
-120 228 0
-121 228 0
-228 116 117 118 119 120 121 0
-138 229 0
-139 229 0
-140 229 0
-141 229 0
-142 229 0
-143 229 0
-229 138 139 140 141 142 143 0
-193 230 0
-194 230 0
-195 230 0
-196 230 0
-197 230 0
-198 230 0
-230 193 194 195 196 197 198 0
226 227 228 229 -230 0
226 227 228 -229 230 0
226 227 228 -229 -230 0
226 227 -228 229 230 0
226 227 -228 229 -230 0
226 227 -228 -229 230 0
226 -227 228 229 230 0
226 -227 228 229 -230 0
226 -227 228 -229 230 0
226 -227 -228 229 230 0
226 -227 -228 -229 -230 0
-226 227 228 229 230 0
-226 227 228 229 -230 0
-226 227 228 -229 230 0
-226 227 -228 229 230 0
-226 227 -228 -229 -230 0
-226 -227 228 229 230 0
-226 -227 228 -229 -230 0
-226 -227 -228 229 -230 0
-226 -227 -228 -229 230 0
-226 -227 -228 -229 -230 0
-3 231 0
-4 231 0
-5 231 0
-9 231 0
-10 231 0
-11 231 0
-231 3 4 5 9 10 11 0
-80 232 0
-81 232 0
-82 232 0
-86 232 0
-87 232 0
-88 232 0
-232 80 81 82 86 87 88 0
-91 233 0
-92 233 0
-93 233 0
-97 233 0
-98 233 0
-99 233 0
-233 91 92 93 97 98 99 0
-113 234 0
-114 234 0
-115 234 0
-119 234 0
-120 234 0
-121 234 0
-234 113 114 115 119 120 121 0
-135 235 0
-136 235 0
-137 235 0
-141 235 0
-142 235 0
-143 235 0
-235 135 136 137 141 142 143 0
231 232 233 234 -235 0
231 232 233 -234 235 0
231 232 233 -234 -235 0
231 232 -233 234 235 0
231 232 -233 234 -235 0
231 232 -233 -234 235 0
231 -232 233 234 235 0
231 -232 233 234 -235 0
231 -232 233 -234 235 0
231 -232 -233 234 235 0
231 -232 -233 -234 -235 0
-231 232 233 234 235 0
-231 232 233 234 -235 0
-231 232 233 -234 235 0
-231 232 -233 234 235 0
-231 232 -233 -234 -235 0
-231 -232 233 234 235 0
-231 -232 233 -234 -235 0
-231 -232 -233 234 -235 0
-231 -232 -233 -234 235 0
-231 -232 -233 -234 -235 0
-25 236 0
-26 236 0
-27 236 0
-31 236 0
-32 236 0
-33 236 0
-236 25 26 27 31 32 33 0
-58 237 0
-59 237 0
-60 237 0
-64 237 0
-65 237 0
-66 237 0
-237 58 59 60 64 65 66 0
-69 238 0
-70 238 0
-71 238 0
-75 238 0
-76 238 0
-77 238 0
-238 69 70 71 75 76 77 0
-190 239 0
-191 239 0
-192 239 0
-196 239 0
-197 239 0
-198 239 0
-239 190 191 192 196 197 198 0
-201 240 0
-202 240 0
-203 240 0
-207 240 0
-208 240 0
-209 240 0
-240 201 202 203 207 208 209 0
236 237 238 239 -240 0
236 237 238 -239 240 0
236 237 238 -239 -240 0
236 237 -238 239 240 0
236 237 -238 239 -240 0
236 237 -238 -239 240 0
236 -237 238 239 240 0
236 -237 238 239 -240 0
236 -237 238 -239 240 0
236 -237 -238 239 240 0
236 -237 -238 -239 -240 0
-236 237 238 239 240 0
-236 237 238 239 -240 0
-236 237 238 -239 240 0
-236 237 -238 239 240 0
-236 237 -238 -239 -240 0
-236 -237 238 239 240 0
-236 -237 238 -239 -240 0
-236 -237 -238 239 -240 0
-236 -237 -238 -239 240 0
-236 -237 -238 -239 -240 0
-2 241 0
-4 241 0
-5 241 0
-7 241 0
-8 241 0
-11 241 0
-241 2 4 5 7 8 11 0
-24 242 0
-26 242 0
-27 242 0
-29 242 0
-30 242 0
-33 242 0
-242 24 26 27 29 30 33 0
-57 243 0
-59 243 0
-60 243 0
-62 243 0
-63 243 0
-66 243 0
-243 57 59 60 62 63 66 0
-90 244 0
-92 244 0
-93 244 0
-95 244 0
-96 244 0
-99 244 0
-244 90 92 93 95 96 99 0
-112 245 0
-114 245 0
-115 245 0
-117 245 0
-118 245 0
-121 245 0
-245 112 114 115 117 118 121 0
241 242 243 244 -245 0
241 242 243 -244 245 0
241 242 243 -244 -245 0
241 242 -243 244 245 0
241 242 -243 244 -245 0
241 242 -243 -244 245 0
241 -242 243 244 245 0
241 -242 243 244 -245 0
241 -242 243 -244 245 0
241 -242 -243 244 245 0
241 -242 -243 -244 -245 0
-241 242 243 244 245 0
-241 242 243 244 -245 0
-241 242 243 -244 245 0
-241 242 -243 244 245 0
-241 242 -243 -244 -245 0
-241 -242 243 244 245 0
-241 -242 243 -244 -245 0
-241 -242 -243 244 -245 0
-241 -242 -243 -244 245 0
-241 -242 -243 -244 -245 0
-68 246 0
-70 246 0
-71 246 0
-73 246 0
-74 246 0
-77 246 0
-246 68 70 71 73 74 77 0
-79 247 0
-81 247 0
-82 247 0
-84 247 0
-85 247 0
-88 247 0
-247 79 81 82 84 85 88 0
-134 248 0
-136 248 0
-137 248 0
-139 248 0
-140 248 0
-143 248 0
-248 134 136 137 139 140 143 0
-189 249 0
-191 249 0
-192 249 0
-194 249 0
-195 249 0
-198 249 0
-249 189 191 192 194 195 198 0
-200 250 0
-202 250 0
-203 250 0
-205 250 0
-206 250 0
-209 250 0
-250 200 202 203 205 206 209 0
246 247 248 249 -250 0
246 247 248 -249 250 0
246 247 248 -249 -250 0
246 247 -248 249 250 0
246 247 -248 249 -250 0
246 247 -248 -249 250 0
246 -247 248 249 250 0
246 -247 248 249 -250 0
246 -247 248 -249 250 0
246 -247 -248 249 250 0
246 -247 -248 -249 -250 0
-246 247 248 249 250 0
-246 247 248 249 -250 0
-246 247 248 -249 250 0
-246 247 -248 249 250 0
-246 247 -248 -249 -250 0
-246 -247 248 249 250 0
-246 -247 248 -249 -250 0
-246 -247 -248 249 -250 0
-246 -247 -248 -249 250 0
-246 -247 -248 -249 -250 0
-2 251 0
-3 251 0
-5 251 0
-6 251 0
-8 251 0
-10 251 0
-251 2 3 5 6 8 10 0
-24 252 0
-25 252 0
-27 252 0
-28 252 0
-30 252 0
-32 252 0
-252 24 25 27 28 30 32 0
-68 253 0
-69 253 0
-71 253 0
-72 253 0
-74 253 0
-76 253 0
-253 68 69 71 72 74 76 0
-112 254 0
-113 254 0
-115 254 0
-116 254 0
-118 254 0
-120 254 0
-254 112 113 115 116 118 120 0
-134 255 0
-135 255 0
-137 255 0
-138 255 0
-140 255 0
-142 255 0
-255 134 135 137 138 140 142 0
251 252 253 254 -255 0
251 252 253 -254 255 0
251 252 253 -254 -255 0
251 252 -253 254 255 0
251 252 -253 254 -255 0
251 252 -253 -254 255 0
251 -252 253 254 255 0
251 -252 253 254 -255 0
251 -252 253 -254 255 0
251 -252 -253 254 255 0
251 -252 -253 -254 -255 0
-251 252 253 254 255 0
-251 252 253 254 -255 0
-251 252 253 -254 255 0
-251 252 -253 254 255 0
-251 252 -253 -254 -255 0
-251 -252 253 254 255 0
-251 -252 253 -254 -255 0
-251 -252 -253 254 -255 0
-251 -252 -253 -254 255 0
-251 -252 -253 -254 -255 0
-57 256 0
-58 256 0
-60 256 0
-61 256 0
-63 256 0
-65 256 0
-256 57 58 60 61 63 65 0
-79 257 0
-80 257 0
-82 257 0
-83 257 0
-85 257 0
-87 257 0
-257 79 80 82 83 85 87 0
-90 258 0
-91 258 0
-93 258 0
-94 258 0
-96 258 0
-98 258 0
-258 90 91 93 94 96 98 0
-189 259 0
-190 259 0
-192 259 0
-193 259 0
-195 259 0
-197 259 0
-259 189 190 192 193 195 197 0
-200 260 0
-201 260 0
-203 260 0
-204 260 0
-206 260 0
-208 260 0
-260 200 201 203 204 206 208 0
256 257 258 259 -260 0
256 257 258 -259 260 0
256 257 258 -259 -260 0
256 257 -258 259 260 0
256 257 -258 259 -260 0
256 257 -258 -259 260 0
256 -257 258 259 260 0
256 -257 258 259 -260 0
256 -257 258 -259 260 0
256 -257 -258 259 260 0
256 -257 -258 -259 -260 0
-256 257 258 259 260 0
-256 257 258 259 -260 0
-256 257 258 -259 260 0
-256 257 -258 259 260 0
-256 257 -258 -259 -260 0
-256 -257 258 259 260 0
-256 -257 258 -259 -260 0
-256 -257 -258 259 -260 0
-256 -257 -258 -259 260 0
-256 -257 -258 -259 -260 0
-2 261 0
-3 261 0
-4 261 0
-6 261 0
-7 261 0
-9 261 0
-261 2 3 4 6 7 9 0
-79 262 0
-80 262 0
-81 262 0
-83 262 0
-84 262 0
-86 262 0
-262 79 80 81 83 84 86 0
-112 263 0
-113 263 0
-114 263 0
-116 263 0
-117 263 0
-119 263 0
-263 112 113 114 116 117 119 0
-134 264 0
-135 264 0
-136 264 0
-138 264 0
-139 264 0
-141 264 0
-264 134 135 136 138 139 141 0
-189 265 0
-190 265 0
-191 265 0
-193 265 0
-194 265 0
-196 265 0
-265 189 190 191 193 194 196 0
261 262 263 264 -265 0
261 262 263 -264 265 0
261 262 263 -264 -265 0
261 262 -263 264 265 0
261 262 -263 264 -265 0
261 262 -263 -264 265 0
261 -262 263 264 265 0
261 -262 263 264 -265 0
261 -262 263 -264 265 0
261 -262 -263 264 265 0
261 -262 -263 -264 -265 0
-261 262 263 264 265 0
-261 262 263 264 -265 0
-261 262 263 -264 265 0
-261 262 -263 264 265 0
-261 262 -263 -264 -265 0
-261 -262 263 264 265 0
-261 -262 263 -264 -265 0
-261 -262 -263 264 -265 0
-261 -262 -263 -264 265 0
-261 -262 -263 -264 -265 0
-24 266 0
-25 266 0
-26 266 0
-28 266 0
-29 266 0
-31 266 0
-266 24 25 26 28 29 31 0
-57 267 0
-58 267 0
-59 267 0
-61 267 0
-62 267 0
-64 267 0
-267 57 58 59 61 62 64 0
-68 268 0
-69 268 0
-70 268 0
-72 268 0
-73 268 0
-75 268 0
-268 68 69 70 72 73 75 0
-90 269 0
-91 269 0
-92 269 0
-94 269 0
-95 269 0
-97 269 0
-269 90 91 92 94 95 97 0
-200 270 0
-201 270 0
-202 270 0
-204 270 0
-205 270 0
-207 270 0
-270 200 201 202 204 205 207 0
266 267 268 269 -270 0
266 267 268 -269 270 0
266 267 268 -269 -270 0
266 267 -268 269 270 0
266 267 -268 269 -270 0
266 267 -268 -269 270 0
266 -267 268 269 270 0
266 -267 268 269 -270 0
266 -267 268 -269 270 0
266 -267 -268 269 270 0
266 -267 -268 -269 -270 0
-266 267 268 269 270 0
-266 267 268 269 -270 0
-266 267 268 -269 270 0
-266 267 -268 269 270 0
-266 267 -268 -269 -270 0
-266 -267 268 269 270 0
-266 -267 268 -269 -270 0
-266 -267 -268 269 -270 0
-266 -267 -268 -269 270 0
-266 -267 -268 -269 -270 0
-39 271 0
-40 271 0
-41 271 0
-42 271 0
-43 271 0
-44 271 0
-271 39 40 41 42 43 44 0
-105 272 0
-106 272 0
-107 272 0
-108 272 0
-109 272 0
-110 272 0
-272 105 106 107 108 109 110 0
-127 273 0
-128 273 0
-129 273 0
-130 273 0
-131 273 0
-132 273 0
-273 127 128 129 130 131 132 0
-149 274 0
-150 274 0
-151 274 0
-152 274 0
-153 274 0
-154 274 0
-274 149 150 151 152 153 154 0
-215 275 0
-216 275 0
-217 275 0
-218 275 0
-219 275 0
-220 275 0
-275 215 216 217 218 219 220 0
271 272 273 274 -275 0
271 272 273 -274 275 0
271 272 273 -274 -275 0
271 272 -273 274 275 0
271 272 -273 274 -275 0
271 272 -273 -274 275 0
271 -272 273 274 275 0
271 -272 273 274 -275 0
271 -272 273 -274 275 0
271 -272 -273 274 275 0
271 -272 -273 -274 -275 0
-271 272 273 274 275 0
-271 272 273 274 -275 0
-271 272 273 -274 275 0
-271 272 -273 274 275 0
-271 272 -273 -274 -275 0
-271 -272 273 274 275 0
-271 -272 273 -274 -275 0
-271 -272 -273 274 -275 0
-271 -272 -273 -274 275 0
-271 -272 -273 -274 -275 0
-17 276 0
-18 276 0
-19 276 0
-20 276 0
-21 276 0
-22 276 0
-276 17 18 19 20 21 22 0
-50 277 0
-51 277 0
-52 277 0
-53 277 0
-54 277 0
-55 277 0
-277 50 51 52 53 54 55 0
-160 278 0
-161 278 0
-162 278 0
-163 278 0
-164 278 0
-165 278 0
-278 160 161 162 163 164 165 0
-171 279 0
-172 279 0
-173 279 0
-174 279 0
-175 279 0
-176 279 0
-279 171 172 173 174 175 176 0
-182 280 0
-183 280 0
-184 280 0
-185 280 0
-186 280 0
-187 280 0
-280 182 183 184 185 186 187 0
276 277 278 279 -280 0
276 277 278 -279 280 0
276 277 278 -279 -280 0
276 277 -278 279 280 0
276 277 -278 279 -280 0
276 277 -278 -279 280 0
276 -277 278 279 280 0
276 -277 278 279 -280 0
276 -277 278 -279 280 0
276 -277 -278 279 280 0
276 -277 -278 -279 -280 0
-276 277 278 279 280 0
-276 277 278 279 -280 0
-276 277 278 -279 280 0
-276 277 -278 279 280 0
-276 277 -278 -279 -280 0
-276 -277 278 279 280 0
-276 -277 278 -279 -280 0
-276 -277 -278 279 -280 0
-276 -277 -278 -279 280 0
-276 -277 -278 -279 -280 0
-14 281 0
-15 281 0
-16 281 0
-20 281 0
-21 281 0
-22 281 0
-281 14 15 16 20 21 22 0
-47 282 0
-48 282 0
-49 282 0
-53 282 0
-54 282 0
-55 282 0
-282 47 48 49 53 54 55 0
-102 283 0
-103 283 0
-104 283 0
-108 283 0
-109 283 0
-110 283 0
-283 102 103 104 108 109 110 0
-157 284 0
-158 284 0
-159 284 0
-163 284 0
-164 284 0
-165 284 0
-284 157 158 159 163 164 165 0
-212 285 0
-213 285 0
-214 285 0
-218 285 0
-219 285 0
-220 285 0
-285 212 213 214 218 219 220 0
281 282 283 284 -285 0
281 282 283 -284 285 0
281 282 283 -284 -285 0
281 282 -283 284 285 0
281 282 -283 284 -285 0
281 282 -283 -284 285 0
281 -282 283 284 285 0
281 -282 283 284 -285 0
281 -282 283 -284 285 0
281 -282 -283 284 285 0
281 -282 -283 -284 -285 0
-281 282 283 284 285 0
-281 282 283 284 -285 0
-281 282 283 -284 285 0
-281 282 -283 284 285 0
-281 282 -283 -284 -285 0
-281 -282 283 284 285 0
-281 -282 283 -284 -285 0
-281 -282 -283 284 -285 0
-281 -282 -283 -284 285 0
-281 -282 -283 -284 -285 0
-36 286 0
-37 286 0
-38 286 0
-42 286 0
-43 286 0
-44 286 0
-286 36 37 38 42 43 44 0
-124 287 0
-125 287 0
-126 287 0
-130 287 0
-131 287 0
-132 287 0
-287 124 125 126 130 131 132 0
-146 288 0
-147 288 0
-148 288 0
-152 288 0
-153 288 0
-154 288 0
-288 146 147 148 152 153 154 0
-168 289 0
-169 289 0
-170 289 0
-174 289 0
-175 289 0
-176 289 0
-289 168 169 170 174 175 176 0
-179 290 0
-180 290 0
-181 290 0
-185 290 0
-186 290 0
-187 290 0
-290 179 180 181 185 186 187 0
286 287 288 289 -290 0
286 287 288 -289 290 0
286 287 288 -289 -290 0
286 287 -288 289 290 0
286 287 -288 289 -290 0
286 287 -288 -289 290 0
286 -287 288 289 290 0
286 -287 288 289 -290 0
286 -287 288 -289 290 0
286 -287 -288 289 290 0
286 -287 -288 -289 -290 0
-286 287 288 289 290 0
-286 287 288 289 -290 0
-286 287 288 -289 290 0
-286 287 -288 289 290 0
-286 287 -288 -289 -290 0
-286 -287 288 289 290 0
-286 -287 288 -289 -290 0
-286 -287 -288 289 -290 0
-286 -287 -288 -289 290 0
-286 -287 -288 -289 -290 0
-13 291 0
-15 291 0
-16 291 0
-18 291 0
-19 291 0
-22 291 0
-291 13 15 16 18 19 22 0
-101 292 0
-103 292 0
-104 292 0
-106 292 0
-107 292 0
-110 292 0
-292 101 103 104 106 107 110 0
-123 293 0
-125 293 0
-126 293 0
-128 293 0
-129 293 0
-132 293 0
-293 123 125 126 128 129 132 0
-145 294 0
-147 294 0
-148 294 0
-150 294 0
-151 294 0
-154 294 0
-294 145 147 148 150 151 154 0
-167 295 0
-169 295 0
-170 295 0
-172 295 0
-173 295 0
-176 295 0
-295 167 169 170 172 173 176 0
291 292 293 294 -295 0
291 292 293 -294 295 0
291 292 293 -294 -295 0
291 292 -293 294 295 0
291 292 -293 294 -295 0
291 292 -293 -294 295 0
291 -292 293 294 295 0
291 -292 293 294 -295 0
291 -292 293 -294 295 0
291 -292 -293 294 295 0
291 -292 -293 -294 -295 0
-291 292 293 294 295 0
-291 292 293 294 -295 0
-291 292 293 -294 295 0
-291 292 -293 294 295 0
-291 292 -293 -294 -295 0
-291 -292 293 294 295 0
-291 -292 293 -294 -295 0
-291 -292 -293 294 -295 0
-291 -292 -293 -294 295 0
-291 -292 -293 -294 -295 0
-35 296 0
-37 296 0
-38 296 0
-40 296 0
-41 296 0
-44 296 0
-296 35 37 38 40 41 44 0
-46 297 0
-48 297 0
-49 297 0
-51 297 0
-52 297 0
-55 297 0
-297 46 48 49 51 52 55 0
-156 298 0
-158 298 0
-159 298 0
-161 298 0
-162 298 0
-165 298 0
-298 156 158 159 161 162 165 0
-178 299 0
-180 299 0
-181 299 0
-183 299 0
-184 299 0
-187 299 0
-299 178 180 181 183 184 187 0
-211 300 0
-213 300 0
-214 300 0
-216 300 0
-217 300 0
-220 300 0
-300 211 213 214 216 217 220 0
296 297 298 299 -300 0
296 297 298 -299 300 0
296 297 298 -299 -300 0
296 297 -298 299 300 0
296 297 -298 299 -300 0
296 297 -298 -299 300 0
296 -297 298 299 300 0
296 -297 298 299 -300 0
296 -297 298 -299 300 0
296 -297 -298 299 300 0
296 -297 -298 -299 -300 0
-296 297 298 299 300 0
-296 297 298 299 -300 0
-296 297 298 -299 300 0
-296 297 -298 299 300 0
-296 297 -298 -299 -300 0
-296 -297 298 299 300 0
-296 -297 298 -299 -300 0
-296 -297 -298 299 -300 0
-296 -297 -298 -299 300 0
-296 -297 -298 -299 -300 0
-35 301 0
-36 301 0
-38 301 0
-39 301 0
-41 301 0
-43 301 0
-301 35 36 38 39 41 43 0
-101 302 0
-102 302 0
-104 302 0
-105 302 0
-107 302 0
-109 302 0
-302 101 102 104 105 107 109 0
-123 303 0
-124 303 0
-126 303 0
-127 303 0
-129 303 0
-131 303 0
-303 123 124 126 127 129 131 0
-156 304 0
-157 304 0
-159 304 0
-160 304 0
-162 304 0
-164 304 0
-304 156 157 159 160 162 164 0
-178 305 0
-179 305 0
-181 305 0
-182 305 0
-184 305 0
-186 305 0
-305 178 179 181 182 184 186 0
301 302 303 304 -305 0
301 302 303 -304 305 0
301 302 303 -304 -305 0
301 302 -303 304 305 0
301 302 -303 304 -305 0
301 302 -303 -304 305 0
301 -302 303 304 305 0
301 -302 303 304 -305 0
301 -302 303 -304 305 0
301 -302 -303 304 305 0
301 -302 -303 -304 -305 0
-301 302 303 304 305 0
-301 302 303 304 -305 0
-301 302 303 -304 305 0
-301 302 -303 304 305 0
-301 302 -303 -304 -305 0
-301 -302 303 304 305 0
-301 -302 303 -304 -305 0
-301 -302 -303 304 -305 0
-301 -302 -303 -304 305 0
-301 -302 -303 -304 -305 0
-13 306 0
-14 306 0
-16 306 0
-17 306 0
-19 306 0
-21 306 0
-306 13 14 16 17 19 21 0
-46 307 0
-47 307 0
-49 307 0
-50 307 0
-52 307 0
-54 307 0
-307 46 47 49 50 52 54 0
-145 308 0
-146 308 0
-148 308 0
-149 308 0
-151 308 0
-153 308 0
-308 145 146 148 149 151 153 0
-167 309 0
-168 309 0
-170 309 0
-171 309 0
-173 309 0
-175 309 0
-309 167 168 170 171 173 175 0
-211 310 0
-212 310 0
-214 310 0
-215 310 0
-217 310 0
-219 310 0
-310 211 212 214 215 217 219 0
306 307 308 309 -310 0
306 307 308 -309 310 0
306 307 308 -309 -310 0
306 307 -308 309 310 0
306 307 -308 309 -310 0
306 307 -308 -309 310 0
306 -307 308 309 310 0
306 -307 308 309 -310 0
306 -307 308 -309 310 0
306 -307 -308 309 310 0
306 -307 -308 -309 -310 0
-306 307 308 309 310 0
-306 307 308 309 -310 0
-306 307 308 -309 310 0
-306 307 -308 309 310 0
-306 307 -308 -309 -310 0
-306 -307 308 309 310 0
-306 -307 308 -309 -310 0
-306 -307 -308 309 -310 0
-306 -307 -308 -309 310 0
-306 -307 -308 -309 -310 0
-35 311 0
-36 311 0
-37 311 0
-39 311 0
-40 311 0
-42 311 0
-311 35 36 37 39 40 42 0
-46 312 0
-47 312 0
-48 312 0
-50 312 0
-51 312 0
-53 312 0
-312 46 47 48 50 51 53 0
-123 313 0
-124 313 0
-125 313 0
-127 313 0
-128 313 0
-130 313 0
-313 123 124 125 127 128 130 0
-145 314 0
-146 314 0
-147 314 0
-149 314 0
-150 314 0
-152 314 0
-314 145 146 147 149 150 152 0
-167 315 0
-168 315 0
-169 315 0
-171 315 0
-172 315 0
-174 315 0
-315 167 168 169 171 172 174 0
311 312 313 314 -315 0
311 312 313 -314 315 0
311 312 313 -314 -315 0
311 312 -313 314 315 0
311 312 -313 314 -315 0
311 312 -313 -314 315 0
311 -312 313 314 315 0
311 -312 313 314 -315 0
311 -312 313 -314 315 0
311 -312 -313 314 315 0
311 -312 -313 -314 -315 0
-311 312 313 314 315 0
-311 312 313 314 -315 0
-311 312 313 -314 315 0
-311 312 -313 314 315 0
-311 312 -313 -314 -315 0
-311 -312 313 314 315 0
-311 -312 313 -314 -315 0
-311 -312 -313 314 -315 0
-311 -312 -313 -314 315 0
-311 -312 -313 -314 -315 0
-13 316 0
-14 316 0
-15 316 0
-17 316 0
-18 316 0
-20 316 0
-316 13 14 15 17 18 20 0
-101 317 0
-102 317 0
-103 317 0
-105 317 0
-106 317 0
-108 317 0
-317 101 102 103 105 106 108 0
-156 318 0
-157 318 0
-158 318 0
-160 318 0
-161 318 0
-163 318 0
-318 156 157 158 160 161 163 0
-178 319 0
-179 319 0
-180 319 0
-182 319 0
-183 319 0
-185 319 0
-319 178 179 180 182 183 185 0
-211 320 0
-212 320 0
-213 320 0
-215 320 0
-216 320 0
-218 320 0
-320 211 212 213 215 216 218 0
316 317 318 319 -320 0
316 317 318 -319 320 0
316 317 318 -319 -320 0
316 317 -318 319 320 0
316 317 -318 319 -320 0
316 317 -318 -319 320 0
316 -317 318 319 320 0
316 -317 318 319 -320 0
316 -317 318 -319 320 0
316 -317 -318 319 320 0
316 -317 -318 -319 -320 0
-316 317 318 319 320 0
-316 317 318 319 -320 0
-316 317 318 -319 320 0
-316 317 -318 319 320 0
-316 317 -318 -319 -320 0
-316 -317 318 319 320 0
-316 -317 318 -319 -320 0
-316 -317 -318 319 -320 0
-316 -317 -318 -319 320 0
-316 -317 -318 -319 -320 0
-3 321 0
-4 321 0
-5 321 0
-6 321 0
-7 321 0
-8 321 0
-321 3 4 5 6 7 8 0
-80 322 0
-81 322 0
-82 322 0
-83 322 0
-84 322 0
-85 322 0
-322 80 81 82 83 84 85 0
-91 323 0
-92 323 0
-93 323 0
-94 323 0
-95 323 0
-96 323 0
-323 91 92 93 94 95 96 0
-102 324 0
-103 324 0
-104 324 0
-105 324 0
-106 324 0
-107 324 0
-324 102 103 104 105 106 107 0
-212 325 0
-213 325 0
-214 325 0
-215 325 0
-216 325 0
-217 325 0
-325 212 213 214 215 216 217 0
321 322 323 324 -325 0
321 322 323 -324 325 0
321 322 323 -324 -325 0
321 322 -323 324 325 0
321 322 -323 324 -325 0
321 322 -323 -324 325 0
321 -322 323 324 325 0
321 -322 323 324 -325 0
321 -322 323 -324 325 0
321 -322 -323 324 325 0
321 -322 -323 -324 -325 0
-321 322 323 324 325 0
-321 322 323 324 -325 0
-321 322 323 -324 325 0
-321 322 -323 324 325 0
-321 322 -323 -324 -325 0
-321 -322 323 324 325 0
-321 -322 323 -324 -325 0
-321 -322 -323 324 -325 0
-321 -322 -323 -324 325 0
-321 -322 -323 -324 -325 0
-36 326 0
-37 326 0
-38 326 0
-39 326 0
-40 326 0
-41 326 0
-326 36 37 38 39 40 41 0
-69 327 0
-70 327 0
-71 327 0
-72 327 0
-73 327 0
-74 327 0
-327 69 70 71 72 73 74 0
-124 328 0
-125 328 0
-126 328 0
-127 328 0
-128 328 0
-129 328 0
-328 124 125 126 127 128 129 0
-146 329 0
-147 329 0
-148 329 0
-149 329 0
-150 329 0
-151 329 0
-329 146 147 148 149 150 151 0
-201 330 0
-202 330 0
-203 330 0
-204 330 0
-205 330 0
-206 330 0
-330 201 202 203 204 205 206 0
326 327 328 329 -330 0
326 327 328 -329 330 0
326 327 328 -329 -330 0
326 327 -328 329 330 0
326 327 -328 329 -330 0
326 327 -328 -329 330 0
326 -327 328 329 330 0
326 -327 328 329 -330 0
326 -327 328 -329 330 0
326 -327 -328 329 330 0
326 -327 -328 -329 -330 0
-326 327 328 329 330 0
-326 327 328 329 -330 0
-326 327 328 -329 330 0
-326 327 -328 329 330 0
-326 327 -328 -329 -330 0
-326 -327 328 329 330 0
-326 -327 328 -329 -330 0
-326 -327 -328 329 -330 0
-326 -327 -328 -329 330 0
-326 -327 -328 -329 -330 0
-2 331 0
-4 331 0
-5 331 0
-6 331 0
-9 331 0
-10 331 0
-331 2 4 5 6 9 10 0
-90 332 0
-92 332 0
-93 332 0
-94 332 0
-97 332 0
-98 332 0
-332 90 92 93 94 97 98 0
-101 333 0
-103 333 0
-104 333 0
-105 333 0
-108 333 0
-109 333 0
-333 101 103 104 105 108 109 0
-123 334 0
-125 334 0
-126 334 0
-127 334 0
-130 334 0
-131 334 0
-334 123 125 126 127 130 131 0
-145 335 0
-147 335 0
-148 335 0
-149 335 0
-152 335 0
-153 335 0
-335 145 147 148 149 152 153 0
331 332 333 334 -335 0
331 332 333 -334 335 0
331 332 333 -334 -335 0
331 332 -333 334 335 0
331 332 -333 334 -335 0
331 332 -333 -334 335 0
331 -332 333 334 335 0
331 -332 333 334 -335 0
331 -332 333 -334 335 0
331 -332 -333 334 335 0
331 -332 -333 -334 -335 0
-331 332 333 334 335 0
-331 332 333 334 -335 0
-331 332 333 -334 335 0
-331 332 -333 334 335 0
-331 332 -333 -334 -335 0
-331 -332 333 334 335 0
-331 -332 333 -334 -335 0
-331 -332 -333 334 -335 0
-331 -332 -333 -334 335 0
-331 -332 -333 -334 -335 0
-35 336 0
-37 336 0
-38 336 0
-39 336 0
-42 336 0
-43 336 0
-336 35 37 38 39 42 43 0
-68 337 0
-70 337 0
-71 337 0
-72 337 0
-75 337 0
-76 337 0
-337 68 70 71 72 75 76 0
-79 338 0
-81 338 0
-82 338 0
-83 338 0
-86 338 0
-87 338 0
-338 79 81 82 83 86 87 0
-200 339 0
-202 339 0
-203 339 0
-204 339 0
-207 339 0
-208 339 0
-339 200 202 203 204 207 208 0
-211 340 0
-213 340 0
-214 340 0
-215 340 0
-218 340 0
-219 340 0
-340 211 213 214 215 218 219 0
336 337 338 339 -340 0
336 337 338 -339 340 0
336 337 338 -339 -340 0
336 337 -338 339 340 0
336 337 -338 339 -340 0
336 337 -338 -339 340 0
336 -337 338 339 340 0
336 -337 338 339 -340 0
336 -337 338 -339 340 0
336 -337 -338 339 340 0
336 -337 -338 -339 -340 0
-336 337 338 339 340 0
-336 337 338 339 -340 0
-336 337 338 -339 340 0
-336 337 -338 339 340 0
-336 337 -338 -339 -340 0
-336 -337 338 339 340 0
-336 -337 338 -339 -340 0
-336 -337 -338 339 -340 0
-336 -337 -338 -339 340 0
-336 -337 -338 -339 -340 0
-2 341 0
-3 341 0
-5 341 0
-7 341 0
-9 341 0
-11 341 0
-341 2 3 5 7 9 11 0
-35 342 0
-36 342 0
-38 342 0
-40 342 0
-42 342 0
-44 342 0
-342 35 36 38 40 42 44 0
-68 343 0
-69 343 0
-71 343 0
-73 343 0
-75 343 0
-77 343 0
-343 68 69 71 73 75 77 0
-101 344 0
-102 344 0
-104 344 0
-106 344 0
-108 344 0
-110 344 0
-344 101 102 104 106 108 110 0
-123 345 0
-124 345 0
-126 345 0
-128 345 0
-130 345 0
-132 345 0
-345 123 124 126 128 130 132 0
341 342 343 344 -345 0
341 342 343 -344 345 0
341 342 343 -344 -345 0
341 342 -343 344 345 0
341 342 -343 344 -345 0
341 342 -343 -344 345 0
341 -342 343 344 345 0
341 -342 343 344 -345 0
341 -342 343 -344 345 0
341 -342 -343 344 345 0
341 -342 -343 -344 -345 0
-341 342 343 344 345 0
-341 342 343 344 -345 0
-341 342 343 -344 345 0
-341 342 -343 344 345 0
-341 342 -343 -344 -345 0
-341 -342 343 344 345 0
-341 -342 343 -344 -345 0
-341 -342 -343 344 -345 0
-341 -342 -343 -344 345 0
-341 -342 -343 -344 -345 0
-79 346 0
-80 346 0
-82 346 0
-84 346 0
-86 346 0
-88 346 0
-346 79 80 82 84 86 88 0
-90 347 0
-91 347 0
-93 347 0
-95 347 0
-97 347 0
-99 347 0
-347 90 91 93 95 97 99 0
-145 348 0
-146 348 0
-148 348 0
-150 348 0
-152 348 0
-154 348 0
-348 145 146 148 150 152 154 0
-200 349 0
-201 349 0
-203 349 0
-205 349 0
-207 349 0
-209 349 0
-349 200 201 203 205 207 209 0
-211 350 0
-212 350 0
-214 350 0
-216 350 0
-218 350 0
-220 350 0
-350 211 212 214 216 218 220 0
346 347 348 349 -350 0
346 347 348 -349 350 0
346 347 348 -349 -350 0
346 347 -348 349 350 0
346 347 -348 349 -350 0
346 347 -348 -349 350 0
346 -347 348 349 350 0
346 -347 348 349 -350 0
346 -347 348 -349 350 0
346 -347 -348 349 350 0
346 -347 -348 -349 -350 0
-346 347 348 349 350 0
-346 347 348 349 -350 0
-346 347 348 -349 350 0
-346 347 -348 349 350 0
-346 347 -348 -349 -350 0
-346 -347 348 349 350 0
-346 -347 348 -349 -350 0
-346 -347 -348 349 -350 0
-346 -347 -348 -349 350 0
-346 -347 -348 -349 -350 0
-2 351 0
-3 351 0
-4 351 0
-8 351 0
-10 351 0
-11 351 0
-351 2 3 4 8 10 11 0
-35 352 0
-36 352 0
-37 352 0
-41 352 0
-43 352 0
-44 352 0
-352 35 36 37 41 43 44 0
-79 353 0
-80 353 0
-81 353 0
-85 353 0
-87 353 0
-88 353 0
-353 79 80 81 85 87 88 0
-123 354 0
-124 354 0
-125 354 0
-129 354 0
-131 354 0
-132 354 0
-354 123 124 125 129 131 132 0
-145 355 0
-146 355 0
-147 355 0
-151 355 0
-153 355 0
-154 355 0
-355 145 146 147 151 153 154 0
351 352 353 354 -355 0
351 352 353 -354 355 0
351 352 353 -354 -355 0
351 352 -353 354 355 0
351 352 -353 354 -355 0
351 352 -353 -354 355 0
351 -352 353 354 355 0
351 -352 353 354 -355 0
351 -352 353 -354 355 0
351 -352 -353 354 355 0
351 -352 -353 -354 -355 0
-351 352 353 354 355 0
-351 352 353 354 -355 0
-351 352 353 -354 355 0
-351 352 -353 354 355 0
-351 352 -353 -354 -355 0
-351 -352 353 354 355 0
-351 -352 353 -354 -355 0
-351 -352 -353 354 -355 0
-351 -352 -353 -354 355 0
-351 -352 -353 -354 -355 0
-68 356 0
-69 356 0
-70 356 0
-74 356 0
-76 356 0
-77 356 0
-356 68 69 70 74 76 77 0
-90 357 0
-91 357 0
-92 357 0
-96 357 0
-98 357 0
-99 357 0
-357 90 91 92 96 98 99 0
-101 358 0
-102 358 0
-103 358 0
-107 358 0
-109 358 0
-110 358 0
-358 101 102 103 107 109 110 0
-200 359 0
-201 359 0
-202 359 0
-206 359 0
-208 359 0
-209 359 0
-359 200 201 202 206 208 209 0
-211 360 0
-212 360 0
-213 360 0
-217 360 0
-219 360 0
-220 360 0
-360 211 212 213 217 219 220 0
356 357 358 359 -360 0
356 357 358 -359 360 0
356 357 358 -359 -360 0
356 357 -358 359 360 0
356 357 -358 359 -360 0
356 357 -358 -359 360 0
356 -357 358 359 360 0
356 -357 358 359 -360 0
356 -357 358 -359 360 0
356 -357 -358 359 360 0
356 -357 -358 -359 -360 0
-356 357 358 359 360 0
-356 357 358 359 -360 0
-356 357 358 -359 360 0
-356 357 -358 359 360 0
-356 357 -358 -359 -360 0
-356 -357 358 359 360 0
-356 -357 358 -359 -360 0
-356 -357 -358 359 -360 0
-356 -357 -358 -359 360 0
-356 -357 -358 -359 -360 0
-14 361 0
-15 361 0
-16 361 0
-17 361 0
-18 361 0
-19 361 0
-361 14 15 16 17 18 19 0
-47 362 0
-48 362 0
-49 362 0
-50 362 0
-51 362 0
-52 362 0
-362 47 48 49 50 51 52 0
-113 363 0
-114 363 0
-115 363 0
-116 363 0
-117 363 0
-118 363 0
-363 113 114 115 116 117 118 0
-135 364 0
-136 364 0
-137 364 0
-138 364 0
-139 364 0
-140 364 0
-364 135 136 137 138 139 140 0
-157 365 0
-158 365 0
-159 365 0
-160 365 0
-161 365 0
-162 365 0
-365 157 158 159 160 161 162 0
361 362 363 364 -365 0
361 362 363 -364 365 0
361 362 363 -364 -365 0
361 362 -363 364 365 0
361 362 -363 364 -365 0
361 362 -363 -364 365 0
361 -362 363 364 365 0
361 -362 363 364 -365 0
361 -362 363 -364 365 0
361 -362 -363 364 365 0
361 -362 -363 -364 -365 0
-361 362 363 364 365 0
-361 362 363 364 -365 0
-361 362 363 -364 365 0
-361 362 -363 364 365 0
-361 362 -363 -364 -365 0
-361 -362 363 364 365 0
-361 -362 363 -364 -365 0
-361 -362 -363 364 -365 0
-361 -362 -363 -364 365 0
-361 -362 -363 -364 -365 0
-25 366 0
-26 366 0
-27 366 0
-28 366 0
-29 366 0
-30 366 0
-366 25 26 27 28 29 30 0
-58 367 0
-59 367 0
-60 367 0
-61 367 0
-62 367 0
-63 367 0
-367 58 59 60 61 62 63 0
-168 368 0
-169 368 0
-170 368 0
-171 368 0
-172 368 0
-173 368 0
-368 168 169 170 171 172 173 0
-179 369 0
-180 369 0
-181 369 0
-182 369 0
-183 369 0
-184 369 0
-369 179 180 181 182 183 184 0
-190 370 0
-191 370 0
-192 370 0
-193 370 0
-194 370 0
-195 370 0
-370 190 191 192 193 194 195 0
366 367 368 369 -370 0
366 367 368 -369 370 0
366 367 368 -369 -370 0
366 367 -368 369 370 0
366 367 -368 369 -370 0
366 367 -368 -369 370 0
366 -367 368 369 370 0
366 -367 368 369 -370 0
366 -367 368 -369 370 0
366 -367 -368 369 370 0
366 -367 -368 -369 -370 0
-366 367 368 369 370 0
-366 367 368 369 -370 0
-366 367 368 -369 370 0
-366 367 -368 369 370 0
-366 367 -368 -369 -370 0
-366 -367 368 369 370 0
-366 -367 368 -369 -370 0
-366 -367 -368 369 -370 0
-366 -367 -368 -369 370 0
-366 -367 -368 -369 -370 0
-13 371 0
-15 371 0
-16 371 0
-17 371 0
-20 371 0
-21 371 0
-371 13 15 16 17 20 21 0
-24 372 0
-26 372 0
-27 372 0
-28 372 0
-31 372 0
-32 372 0
-372 24 26 27 28 31 32 0
-57 373 0
-59 373 0
-60 373 0
-61 373 0
-64 373 0
-65 373 0
-373 57 59 60 61 64 65 0
-112 374 0
-114 374 0
-115 374 0
-116 374 0
-119 374 0
-120 374 0
-374 112 114 115 116 119 120 0
-167 375 0
-169 375 0
-170 375 0
-171 375 0
-174 375 0
-175 375 0
-375 167 169 170 171 174 175 0
371 372 373 374 -375 0
371 372 373 -374 375 0
371 372 373 -374 -375 0
371 372 -373 374 375 0
371 372 -373 374 -375 0
371 372 -373 -374 375 0
371 -372 373 374 375 0
371 -372 373 374 -375 0
371 -372 373 -374 375 0
371 -372 -373 374 375 0
371 -372 -373 -374 -375 0
-371 372 373 374 375 0
-371 372 373 374 -375 0
-371 372 373 -374 375 0
-371 372 -373 374 375 0
-371 372 -373 -374 -375 0
-371 -372 373 374 375 0
-371 -372 373 -374 -375 0
-371 -372 -373 374 -375 0
-371 -372 -373 -374 375 0
-371 -372 -373 -374 -375 0
-46 376 0
-48 376 0
-49 376 0
-50 376 0
-53 376 0
-54 376 0
-376 46 48 49 50 53 54 0
-134 377 0
-136 377 0
-137 377 0
-138 377 0
-141 377 0
-142 377 0
-377 134 136 137 138 141 142 0
-156 378 0
-158 378 0
-159 378 0
-160 378 0
-163 378 0
-164 378 0
-378 156 158 159 160 163 164 0
-178 379 0
-180 379 0
-181 379 0
-182 379 0
-185 379 0
-186 379 0
-379 178 180 181 182 185 186 0
-189 380 0
-191 380 0
-192 380 0
-193 380 0
-196 380 0
-197 380 0
-380 189 191 192 193 196 197 0
376 377 378 379 -380 0
376 377 378 -379 380 0
376 377 378 -379 -380 0
376 377 -378 379 380 0
376 377 -378 379 -380 0
376 377 -378 -379 380 0
376 -377 378 379 380 0
376 -377 378 379 -380 0
376 -377 378 -379 380 0
376 -377 -378 379 380 0
376 -377 -378 -379 -380 0
-376 377 378 379 380 0
-376 377 378 379 -380 0
-376 377 378 -379 380 0
-376 377 -378 379 380 0
-376 377 -378 -379 -380 0
-376 -377 378 379 380 0
-376 -377 378 -379 -380 0
-376 -377 -378 379 -380 0
-376 -377 -378 -379 380 0
-376 -377 -378 -379 -380 0
-24 381 0
-25 381 0
-27 381 0
-29 381 0
-31 381 0
-33 381 0
-381 24 25 27 29 31 33 0
-112 382 0
-113 382 0
-115 382 0
-117 382 0
-119 382 0
-121 382 0
-382 112 113 115 117 119 121 0
-134 383 0
-135 383 0
-137 383 0
-139 383 0
-141 383 0
-143 383 0
-383 134 135 137 139 141 143 0
-156 384 0
-157 384 0
-159 384 0
-161 384 0
-163 384 0
-165 384 0
-384 156 157 159 161 163 165 0
-178 385 0
-179 385 0
-181 385 0
-183 385 0
-185 385 0
-187 385 0
-385 178 179 181 183 185 187 0
381 382 383 384 -385 0
381 382 383 -384 385 0
381 382 383 -384 -385 0
381 382 -383 384 385 0
381 382 -383 384 -385 0
381 382 -383 -384 385 0
381 -382 383 384 385 0
381 -382 383 384 -385 0
381 -382 383 -384 385 0
381 -382 -383 384 385 0
381 -382 -383 -384 -385 0
-381 382 383 384 385 0
-381 382 383 384 -385 0
-381 382 383 -384 385 0
-381 382 -383 384 385 0
-381 382 -383 -384 -385 0
-381 -382 383 384 385 0
-381 -382 383 -384 -385 0
-381 -382 -383 384 -385 0
-381 -382 -383 -384 385 0
-381 -382 -383 -384 -385 0
-13 386 0
-14 386 0
-16 386 0
-18 386 0
-20 386 0
-22 386 0
-386 13 14 16 18 20 22 0
-46 387 0
-47 387 0
-49 387 0
-51 387 0
-53 387 0
-55 387 0
-387 46 47 49 51 53 55 0
-57 388 0
-58 388 0
-60 388 0
-62 388 0
-64 388 0
-66 388 0
-388 57 58 60 62 64 66 0
-167 389 0
-168 389 0
-170 389 0
-172 389 0
-174 389 0
-176 389 0
-389 167 168 170 172 174 176 0
-189 390 0
-190 390 0
-192 390 0
-194 390 0
-196 390 0
-198 390 0
-390 189 190 192 194 196 198 0
386 387 388 389 -390 0
386 387 388 -389 390 0
386 387 388 -389 -390 0
386 387 -388 389 390 0
386 387 -388 389 -390 0
386 387 -388 -389 390 0
386 -387 388 389 390 0
386 -387 388 389 -390 0
386 -387 388 -389 390 0
386 -387 -388 389 390 0
386 -387 -388 -389 -390 0
-386 387 388 389 390 0
-386 387 388 389 -390 0
-386 387 388 -389 390 0
-386 387 -388 389 390 0
-386 387 -388 -389 -390 0
-386 -387 388 389 390 0
-386 -387 388 -389 -390 0
-386 -387 -388 389 -390 0
-386 -387 -388 -389 390 0
-386 -387 -388 -389 -390 0
-46 391 0
-47 391 0
-48 391 0
-52 391 0
-54 391 0
-55 391 0
-391 46 47 48 52 54 55 0
-112 392 0
-113 392 0
-114 392 0
-118 392 0
-120 392 0
-121 392 0
-392 112 113 114 118 120 121 0
-134 393 0
-135 393 0
-136 393 0
-140 393 0
-142 393 0
-143 393 0
-393 134 135 136 140 142 143 0
-167 394 0
-168 394 0
-169 394 0
-173 394 0
-175 394 0
-176 394 0
-394 167 168 169 173 175 176 0
-189 395 0
-190 395 0
-191 395 0
-195 395 0
-197 395 0
-198 395 0
-395 189 190 191 195 197 198 0
391 392 393 394 -395 0
391 392 393 -394 395 0
391 392 393 -394 -395 0
391 392 -393 394 395 0
391 392 -393 394 -395 0
391 392 -393 -394 395 0
391 -392 393 394 395 0
391 -392 393 394 -395 0
391 -392 393 -394 395 0
391 -392 -393 394 395 0
391 -392 -393 -394 -395 0
-391 392 393 394 395 0
-391 392 393 394 -395 0
-391 392 393 -394 395 0
-391 392 -393 394 395 0
-391 392 -393 -394 -395 0
-391 -392 393 394 395 0
-391 -392 393 -394 -395 0
-391 -392 -393 394 -395 0
-391 -392 -393 -394 395 0
-391 -392 -393 -394 -395 0
-13 396 0
-14 396 0
-15 396 0
-19 396 0
-21 396 0
-22 396 0
-396 13 14 15 19 21 22 0
-24 397 0
-25 397 0
-26 397 0
-30 397 0
-32 397 0
-33 397 0
-397 24 25 26 30 32 33 0
-57 398 0
-58 398 0
-59 398 0
-63 398 0
-65 398 0
-66 398 0
-398 57 58 59 63 65 66 0
-156 399 0
-157 399 0
-158 399 0
-162 399 0
-164 399 0
-165 399 0
-399 156 157 158 162 164 165 0
-178 400 0
-179 400 0
-180 400 0
-184 400 0
-186 400 0
-187 400 0
-400 178 179 180 184 186 187 0
396 397 398 399 -400 0
396 397 398 -399 400 0
396 397 398 -399 -400 0
396 397 -398 399 400 0
396 397 -398 399 -400 0
396 397 -398 -399 400 0
396 -397 398 399 400 0
396 -397 398 399 -400 0
396 -397 398 -399 400 0
396 -397 -398 399 400 0
396 -397 -398 -399 -400 0
-396 397 398 399 400 0
-396 397 398 399 -400 0
-396 397 398 -399 400 0
-396 397 -398 399 400 0
-396 397 -398 -399 -400 0
-396 -397 398 399 400 0
-396 -397 398 -399 -400 0
-396 -397 -398 399 -400 0
-396 -397 -398 -399 400 0
-396 -397 -398 -399 -400 0
-2 401 0
-3 401 0
-7 401 0
-8 401 0
-9 401 0
-10 401 0
-401 2 3 7 8 9 10 0
-13 402 0
-14 402 0
-18 402 0
-19 402 0
-20 402 0
-21 402 0
-402 13 14 18 19 20 21 0
-90 403 0
-91 403 0
-95 403 0
-96 403 0
-97 403 0
-98 403 0
-403 90 91 95 96 97 98 0
-101 404 0
-102 404 0
-106 404 0
-107 404 0
-108 404 0
-109 404 0
-404 101 102 106 107 108 109 0
-112 405 0
-113 405 0
-117 405 0
-118 405 0
-119 405 0
-120 405 0
-405 112 113 117 118 119 120 0
401 402 403 404 -405 0
401 402 403 -404 405 0
401 402 403 -404 -405 0
401 402 -403 404 405 0
401 402 -403 404 -405 0
401 402 -403 -404 405 0
401 -402 403 404 405 0
401 -402 403 404 -405 0
401 -402 403 -404 405 0
401 -402 -403 404 405 0
401 -402 -403 -404 -405 0
-401 402 403 404 405 0
-401 402 403 404 -405 0
-401 402 403 -404 405 0
-401 402 -403 404 405 0
-401 402 -403 -404 -405 0
-401 -402 403 404 405 0
-401 -402 403 -404 -405 0
-401 -402 -403 404 -405 0
-401 -402 -403 -404 405 0
-401 -402 -403 -404 -405 0
-46 406 0
-47 406 0
-51 406 0
-52 406 0
-53 406 0
-54 406 0
-406 46 47 51 52 53 54 0
-79 407 0
-80 407 0
-84 407 0
-85 407 0
-86 407 0
-87 407 0
-407 79 80 84 85 86 87 0
-134 408 0
-135 408 0
-139 408 0
-140 408 0
-141 408 0
-142 408 0
-408 134 135 139 140 141 142 0
-156 409 0
-157 409 0
-161 409 0
-162 409 0
-163 409 0
-164 409 0
-409 156 157 161 162 163 164 0
-211 410 0
-212 410 0
-216 410 0
-217 410 0
-218 410 0
-219 410 0
-410 211 212 216 217 218 219 0
406 407 408 409 -410 0
406 407 408 -409 410 0
406 407 408 -409 -410 0
406 407 -408 409 410 0
406 407 -408 409 -410 0
406 407 -408 -409 410 0
406 -407 408 409 410 0
406 -407 408 409 -410 0
406 -407 408 -409 410 0
406 -407 -408 409 410 0
406 -407 -408 -409 -410 0
-406 407 408 409 410 0
-406 407 408 409 -410 0
-406 407 408 -409 410 0
-406 407 -408 409 410 0
-406 407 -408 -409 -410 0
-406 -407 408 409 410 0
-406 -407 408 -409 -410 0
-406 -407 -408 409 -410 0
-406 -407 -408 -409 410 0
-406 -407 -408 -409 -410 0
-2 411 0
-4 411 0
-6 411 0
-8 411 0
-9 411 0
-11 411 0
-411 2 4 6 8 9 11 0
-101 412 0
-103 412 0
-105 412 0
-107 412 0
-108 412 0
-110 412 0
-412 101 103 105 107 108 110 0
-112 413 0
-114 413 0
-116 413 0
-118 413 0
-119 413 0
-121 413 0
-413 112 114 116 118 119 121 0
-134 414 0
-136 414 0
-138 414 0
-140 414 0
-141 414 0
-143 414 0
-414 134 136 138 140 141 143 0
-156 415 0
-158 415 0
-160 415 0
-162 415 0
-163 415 0
-165 415 0
-415 156 158 160 162 163 165 0
411 412 413 414 -415 0
411 412 413 -414 415 0
411 412 413 -414 -415 0
411 412 -413 414 415 0
411 412 -413 414 -415 0
411 412 -413 -414 415 0
411 -412 413 414 415 0
411 -412 413 414 -415 0
411 -412 413 -414 415 0
411 -412 -413 414 415 0
411 -412 -413 -414 -415 0
-411 412 413 414 415 0
-411 412 413 414 -415 0
-411 412 413 -414 415 0
-411 412 -413 414 415 0
-411 412 -413 -414 -415 0
-411 -412 413 414 415 0
-411 -412 413 -414 -415 0
-411 -412 -413 414 -415 0
-411 -412 -413 -414 415 0
-411 -412 -413 -414 -415 0
-13 416 0
-15 416 0
-17 416 0
-19 416 0
-20 416 0
-22 416 0
-416 13 15 17 19 20 22 0
-46 417 0
-48 417 0
-50 417 0
-52 417 0
-53 417 0
-55 417 0
-417 46 48 50 52 53 55 0
-79 418 0
-81 418 0
-83 418 0
-85 418 0
-86 418 0
-88 418 0
-418 79 81 83 85 86 88 0
-90 419 0
-92 419 0
-94 419 0
-96 419 0
-97 419 0
-99 419 0
-419 90 92 94 96 97 99 0
-211 420 0
-213 420 0
-215 420 0
-217 420 0
-218 420 0
-220 420 0
-420 211 213 215 217 218 220 0
416 417 418 419 -420 0
416 417 418 -419 420 0
416 417 418 -419 -420 0
416 417 -418 419 420 0
416 417 -418 419 -420 0
416 417 -418 -419 420 0
416 -417 418 419 420 0
416 -417 418 419 -420 0
416 -417 418 -419 420 0
416 -417 -418 419 420 0
416 -417 -418 -419 -420 0
-416 417 418 419 420 0
-416 417 418 419 -420 0
-416 417 418 -419 420 0
-416 417 -418 419 420 0
-416 417 -418 -419 -420 0
-416 -417 418 419 420 0
-416 -417 418 -419 -420 0
-416 -417 -418 419 -420 0
-416 -417 -418 -419 420 0
-416 -417 -418 -419 -420 0
-2 421 0
-5 421 0
-6 421 0
-7 421 0
-10 421 0
-11 421 0
-421 2 5 6 7 10 11 0
-46 422 0
-49 422 0
-50 422 0
-51 422 0
-54 422 0
-55 422 0
-422 46 49 50 51 54 55 0
-79 423 0
-82 423 0
-83 423 0
-84 423 0
-87 423 0
-88 423 0
-423 79 82 83 84 87 88 0
-112 424 0
-115 424 0
-116 424 0
-117 424 0
-120 424 0
-121 424 0
-424 112 115 116 117 120 121 0
-134 425 0
-137 425 0
-138 425 0
-139 425 0
-142 425 0
-143 425 0
-425 134 137 138 139 142 143 0
421 422 423 424 -425 0
421 422 423 -424 425 0
421 422 423 -424 -425 0
421 422 -423 424 425 0
421 422 -423 424 -425 0
421 422 -423 -424 425 0
421 -422 423 424 425 0
421 -422 423 424 -425 0
421 -422 423 -424 425 0
421 -422 -423 424 425 0
421 -422 -423 -424 -425 0
-421 422 423 424 425 0
-421 422 423 424 -425 0
-421 422 423 -424 425 0
-421 422 -423 424 425 0
-421 422 -423 -424 -425 0
-421 -422 423 424 425 0
-421 -422 423 -424 -425 0
-421 -422 -423 424 -425 0
-421 -422 -423 -424 425 0
-421 -422 -423 -424 -425 0
-13 426 0
-16 426 0
-17 426 0
-18 426 0
-21 426 0
-22 426 0
-426 13 16 17 18 21 22 0
-90 427 0
-93 427 0
-94 427 0
-95 427 0
-98 427 0
-99 427 0
-427 90 93 94 95 98 99 0
-101 428 0
-104 428 0
-105 428 0
-106 428 0
-109 428 0
-110 428 0
-428 101 104 105 106 109 110 0
-156 429 0
-159 429 0
-160 429 0
-161 429 0
-164 429 0
-165 429 0
-429 156 159 160 161 164 165 0
-211 430 0
-214 430 0
-215 430 0
-216 430 0
-219 430 0
-220 430 0
-430 211 214 215 216 219 220 0
426 427 428 429 -430 0
426 427 428 -429 430 0
426 427 428 -429 -430 0
426 427 -428 429 430 0
426 427 -428 429 -430 0
426 427 -428 -429 430 0
426 -427 428 429 430 0
426 -427 428 429 -430 0
426 -427 428 -429 430 0
426 -427 -428 429 430 0
426 -427 -428 -429 -430 0
-426 427 428 429 430 0
-426 427 428 429 -430 0
-426 427 428 -429 430 0
-426 427 -428 429 430 0
-426 427 -428 -429 -430 0
-426 -427 428 429 430 0
-426 -427 428 -429 -430 0
-426 -427 -428 429 -430 0
-426 -427 -428 -429 430 0
-426 -427 -428 -429 -430 0
-24 431 0
-25 431 0
-29 431 0
-30 431 0
-31 431 0
-32 431 0
-431 24 25 29 30 31 32 0
-57 432 0
-58 432 0
-62 432 0
-63 432 0
-64 432 0
-65 432 0
-432 57 58 62 63 64 65 0
-123 433 0
-124 433 0
-128 433 0
-129 433 0
-130 433 0
-131 433 0
-433 123 124 128 129 130 131 0
-145 434 0
-146 434 0
-150 434 0
-151 434 0
-152 434 0
-153 434 0
-434 145 146 150 151 152 153 0
-167 435 0
-168 435 0
-172 435 0
-173 435 0
-174 435 0
-175 435 0
-435 167 168 172 173 174 175 0
431 432 433 434 -435 0
431 432 433 -434 435 0
431 432 433 -434 -435 0
431 432 -433 434 435 0
431 432 -433 434 -435 0
431 432 -433 -434 435 0
431 -432 433 434 435 0
431 -432 433 434 -435 0
431 -432 433 -434 435 0
431 -432 -433 434 435 0
431 -432 -433 -434 -435 0
-431 432 433 434 435 0
-431 432 433 434 -435 0
-431 432 433 -434 435 0
-431 432 -433 434 435 0
-431 432 -433 -434 -435 0
-431 -432 433 434 435 0
-431 -432 433 -434 -435 0
-431 -432 -433 434 -435 0
-431 -432 -433 -434 435 0
-431 -432 -433 -434 -435 0
-35 436 0
-36 436 0
-40 436 0
-41 436 0
-42 436 0
-43 436 0
-436 35 36 40 41 42 43 0
-68 437 0
-69 437 0
-73 437 0
-74 437 0
-75 437 0
-76 437 0
-437 68 69 73 74 75 76 0
-178 438 0
-179 438 0
-183 438 0
-184 438 0
-185 438 0
-186 438 0
-438 178 179 183 184 185 186 0
-189 439 0
-190 439 0
-194 439 0
-195 439 0
-196 439 0
-197 439 0
-439 189 190 194 195 196 197 0
-200 440 0
-201 440 0
-205 440 0
-206 440 0
-207 440 0
-208 440 0
-440 200 201 205 206 207 208 0
436 437 438 439 -440 0
436 437 438 -439 440 0
436 437 438 -439 -440 0
436 437 -438 439 440 0
436 437 -438 439 -440 0
436 437 -438 -439 440 0
436 -437 438 439 440 0
436 -437 438 439 -440 0
436 -437 438 -439 440 0
436 -437 -438 439 440 0
436 -437 -438 -439 -440 0
-436 437 438 439 440 0
-436 437 438 439 -440 0
-436 437 438 -439 440 0
-436 437 -438 439 440 0
-436 437 -438 -439 -440 0
-436 -437 438 439 440 0
-436 -437 438 -439 -440 0
-436 -437 -438 439 -440 0
-436 -437 -438 -439 440 0
-436 -437 -438 -439 -440 0
-24 441 0
-26 441 0
-28 441 0
-30 441 0
-31 441 0
-33 441 0
-441 24 26 28 30 31 33 0
-35 442 0
-37 442 0
-39 442 0
-41 442 0
-42 442 0
-44 442 0
-442 35 37 39 41 42 44 0
-68 443 0
-70 443 0
-72 443 0
-74 443 0
-75 443 0
-77 443 0
-443 68 70 72 74 75 77 0
-123 444 0
-125 444 0
-127 444 0
-129 444 0
-130 444 0
-132 444 0
-444 123 125 127 129 130 132 0
-178 445 0
-180 445 0
-182 445 0
-184 445 0
-185 445 0
-187 445 0
-445 178 180 182 184 185 187 0
441 442 443 444 -445 0
441 442 443 -444 445 0
441 442 443 -444 -445 0
441 442 -443 444 445 0
441 442 -443 444 -445 0
441 442 -443 -444 445 0
441 -442 443 444 445 0
441 -442 443 444 -445 0
441 -442 443 -444 445 0
441 -442 -443 444 445 0
441 -442 -443 -444 -445 0
-441 442 443 444 445 0
-441 442 443 444 -445 0
-441 442 443 -444 445 0
-441 442 -443 444 445 0
-441 442 -443 -444 -445 0
-441 -442 443 444 445 0
-441 -442 443 -444 -445 0
-441 -442 -443 444 -445 0
-441 -442 -443 -444 445 0
-441 -442 -443 -444 -445 0
-57 446 0
-59 446 0
-61 446 0
-63 446 0
-64 446 0
-66 446 0
-446 57 59 61 63 64 66 0
-145 447 0
-147 447 0
-149 447 0
-151 447 0
-152 447 0
-154 447 0
-447 145 147 149 151 152 154 0
-167 448 0
-169 448 0
-171 448 0
-173 448 0
-174 448 0
-176 448 0
-448 167 169 171 173 174 176 0
-189 449 0
-191 449 0
-193 449 0
-195 449 0
-196 449 0
-198 449 0
-449 189 191 193 195 196 198 0
-200 450 0
-202 450 0
-204 450 0
-206 450 0
-207 450 0
-209 450 0
-450 200 202 204 206 207 209 0
446 447 448 449 -450 0
446 447 448 -449 450 0
446 447 448 -449 -450 0
446 447 -448 449 450 0
446 447 -448 449 -450 0
446 447 -448 -449 450 0
446 -447 448 449 450 0
446 -447 448 449 -450 0
446 -447 448 -449 450 0
446 -447 -448 449 450 0
446 -447 -448 -449 -450 0
-446 447 448 449 450 0
-446 447 448 449 -450 0
-446 447 448 -449 450 0
-446 447 -448 449 450 0
-446 447 -448 -449 -450 0
-446 -447 448 449 450 0
-446 -447 448 -449 -450 0
-446 -447 -448 449 -450 0
-446 -447 -448 -449 450 0
-446 -447 -448 -449 -450 0
-35 451 0
-38 451 0
-39 451 0
-40 451 0
-43 451 0
-44 451 0
-451 35 38 39 40 43 44 0
-123 452 0
-126 452 0
-127 452 0
-128 452 0
-131 452 0
-132 452 0
-452 123 126 127 128 131 132 0
-145 453 0
-148 453 0
-149 453 0
-150 453 0
-153 453 0
-154 453 0
-453 145 148 149 150 153 154 0
-167 454 0
-170 454 0
-171 454 0
-172 454 0
-175 454 0
-176 454 0
-454 167 170 171 172 175 176 0
-189 455 0
-192 455 0
-193 455 0
-194 455 0
-197 455 0
-198 455 0
-455 189 192 193 194 197 198 0
451 452 453 454 -455 0
451 452 453 -454 455 0
451 452 453 -454 -455 0
451 452 -453 454 455 0
451 452 -453 454 -455 0
451 452 -453 -454 455 0
451 -452 453 454 455 0
451 -452 453 454 -455 0
451 -452 453 -454 455 0
451 -452 -453 454 455 0
451 -452 -453 -454 -455 0
-451 452 453 454 455 0
-451 452 453 454 -455 0
-451 452 453 -454 455 0
-451 452 -453 454 455 0
-451 452 -453 -454 -455 0
-451 -452 453 454 455 0
-451 -452 453 -454 -455 0
-451 -452 -453 454 -455 0
-451 -452 -453 -454 455 0
-451 -452 -453 -454 -455 0
-24 456 0
-27 456 0
-28 456 0
-29 456 0
-32 456 0
-33 456 0
-456 24 27 28 29 32 33 0
-57 457 0
-60 457 0
-61 457 0
-62 457 0
-65 457 0
-66 457 0
-457 57 60 61 62 65 66 0
-68 458 0
-71 458 0
-72 458 0
-73 458 0
-76 458 0
-77 458 0
-458 68 71 72 73 76 77 0
-178 459 0
-181 459 0
-182 459 0
-183 459 0
-186 459 0
-187 459 0
-459 178 181 182 183 186 187 0
-200 460 0
-203 460 0
-204 460 0
-205 460 0
-208 460 0
-209 460 0
-460 200 203 204 205 208 209 0
456 457 458 459 -460 0
456 457 458 -459 460 0
456 457 458 -459 -460 0
456 457 -458 459 460 0
456 457 -458 459 -460 0
456 457 -458 -459 460 0
456 -457 458 459 460 0
456 -457 458 459 -460 0
456 -457 458 -459 460 0
456 -457 -458 459 460 0
456 -457 -458 -459 -460 0
-456 457 458 459 460 0
-456 457 458 459 -460 0
-456 457 458 -459 460 0
-456 457 -458 459 460 0
-456 457 -458 -459 -460 0
-456 -457 458 459 460 0
-456 -457 458 -459 -460 0
-456 -457 -458 459 -460 0
-456 -457 -458 -459 460 0
-456 -457 -458 -459 -460 0
-3 461 0
-4 461 0
-6 461 0
-7 461 0
-10 461 0
-11 461 0
-461 3 4 6 7 10 11 0
-25 462 0
-26 462 0
-28 462 0
-29 462 0
-32 462 0
-33 462 0
-462 25 26 28 29 32 33 0
-102 463 0
-103 463 0
-105 463 0
-106 463 0
-109 463 0
-110 463 0
-463 102 103 105 106 109 110 0
-113 464 0
-114 464 0
-116 464 0
-117 464 0
-120 464 0
-121 464 0
-464 113 114 116 117 120 121 0
-124 465 0
-125 465 0
-127 465 0
-128 465 0
-131 465 0
-132 465 0
-465 124 125 127 128 131 132 0
461 462 463 464 -465 0
461 462 463 -464 465 0
461 462 463 -464 -465 0
461 462 -463 464 465 0
461 462 -463 464 -465 0
461 462 -463 -464 465 0
461 -462 463 464 465 0
461 -462 463 464 -465 0
461 -462 463 -464 465 0
461 -462 -463 464 465 0
461 -462 -463 -464 -465 0
-461 462 463 464 465 0
-461 462 463 464 -465 0
-461 462 463 -464 465 0
-461 462 -463 464 465 0
-461 462 -463 -464 -465 0
-461 -462 463 464 465 0
-461 -462 463 -464 -465 0
-461 -462 -463 464 -465 0
-461 -462 -463 -464 465 0
-461 -462 -463 -464 -465 0
-14 466 0
-15 466 0
-17 466 0
-18 466 0
-21 466 0
-22 466 0
-466 14 15 17 18 21 22 0
-58 467 0
-59 467 0
-61 467 0
-62 467 0
-65 467 0
-66 467 0
-467 58 59 61 62 65 66 0
-91 468 0
-92 468 0
-94 468 0
-95 468 0
-98 468 0
-99 468 0
-468 91 92 94 95 98 99 0
-146 469 0
-147 469 0
-149 469 0
-150 469 0
-153 469 0
-154 469 0
-469 146 147 149 150 153 154 0
-168 470 0
-169 470 0
-171 470 0
-172 470 0
-175 470 0
-176 470 0
-470 168 169 171 172 175 176 0
466 467 468 469 -470 0
466 467 468 -469 470 0
466 467 468 -469 -470 0
466 467 -468 469 470 0
466 467 -468 469 -470 0
466 467 -468 -469 470 0
466 -467 468 469 470 0
466 -467 468 469 -470 0
466 -467 468 -469 470 0
466 -467 -468 469 470 0
466 -467 -468 -469 -470 0
-466 467 468 469 470 0
-466 467 468 469 -470 0
-466 467 468 -469 470 0
-466 467 -468 469 470 0
-466 467 -468 -469 -470 0
-466 -467 468 469 470 0
-466 -467 468 -469 -470 0
-466 -467 -468 469 -470 0
-466 -467 -468 -469 470 0
-466 -467 -468 -469 -470 0
-3 471 0
-5 471 0
-6 471 0
-8 471 0
-9 471 0
-11 471 0
-471 3 5 6 8 9 11 0
-113 472 0
-115 472 0
-116 472 0
-118 472 0
-119 472 0
-121 472 0
-472 113 115 116 118 119 121 0
-124 473 0
-126 473 0
-127 473 0
-129 473 0
-130 473 0
-132 473 0
-473 124 126 127 129 130 132 0
-146 474 0
-148 474 0
-149 474 0
-151 474 0
-152 474 0
-154 474 0
-474 146 148 149 151 152 154 0
-168 475 0
-170 475 0
-171 475 0
-173 475 0
-174 475 0
-176 475 0
-475 168 170 171 173 174 176 0
471 472 473 474 -475 0
471 472 473 -474 475 0
471 472 473 -474 -475 0
471 472 -473 474 475 0
471 472 -473 474 -475 0
471 472 -473 -474 475 0
471 -472 473 474 475 0
471 -472 473 474 -475 0
471 -472 473 -474 475 0
471 -472 -473 474 475 0
471 -472 -473 -474 -475 0
-471 472 473 474 475 0
-471 472 473 474 -475 0
-471 472 473 -474 475 0
-471 472 -473 474 475 0
-471 472 -473 -474 -475 0
-471 -472 473 474 475 0
-471 -472 473 -474 -475 0
-471 -472 -473 474 -475 0
-471 -472 -473 -474 475 0
-471 -472 -473 -474 -475 0
-14 476 0
-16 476 0
-17 476 0
-19 476 0
-20 476 0
-22 476 0
-476 14 16 17 19 20 22 0
-25 477 0
-27 477 0
-28 477 0
-30 477 0
-31 477 0
-33 477 0
-477 25 27 28 30 31 33 0
-58 478 0
-60 478 0
-61 478 0
-63 478 0
-64 478 0
-66 478 0
-478 58 60 61 63 64 66 0
-91 479 0
-93 479 0
-94 479 0
-96 479 0
-97 479 0
-99 479 0
-479 91 93 94 96 97 99 0
-102 480 0
-104 480 0
-105 480 0
-107 480 0
-108 480 0
-110 480 0
-480 102 104 105 107 108 110 0
476 477 478 479 -480 0
476 477 478 -479 480 0
476 477 478 -479 -480 0
476 477 -478 479 480 0
476 477 -478 479 -480 0
476 477 -478 -479 480 0
476 -477 478 479 480 0
476 -477 478 479 -480 0
476 -477 478 -479 480 0
476 -477 -478 479 480 0
476 -477 -478 -479 -480 0
-476 477 478 479 480 0
-476 477 478 479 -480 0
-476 477 478 -479 480 0
-476 477 -478 479 480 0
-476 477 -478 -479 -480 0
-476 -477 478 479 480 0
-476 -477 478 -479 -480 0
-476 -477 -478 479 -480 0
-476 -477 -478 -479 480 0
-476 -477 -478 -479 -480 0
-36 481 0
-37 481 0
-39 481 0
-40 481 0
-43 481 0
-44 481 0
-481 36 37 39 40 43 44 0
-69 482 0
-70 482 0
-72 482 0
-73 482 0
-76 482 0
-77 482 0
-482 69 70 72 73 76 77 0
-135 483 0
-136 483 0
-138 483 0
-139 483 0
-142 483 0
-143 483 0
-483 135 136 138 139 142 143 0
-157 484 0
-158 484 0
-160 484 0
-161 484 0
-164 484 0
-165 484 0
-484 157 158 160 161 164 165 0
-179 485 0
-180 485 0
-182 485 0
-183 485 0
-186 485 0
-187 485 0
-485 179 180 182 183 186 187 0
481 482 483 484 -485 0
481 482 483 -484 485 0
481 482 483 -484 -485 0
481 482 -483 484 485 0
481 482 -483 484 -485 0
481 482 -483 -484 485 0
481 -482 483 484 485 0
481 -482 483 484 -485 0
481 -482 483 -484 485 0
481 -482 -483 484 485 0
481 -482 -483 -484 -485 0
-481 482 483 484 485 0
-481 482 483 484 -485 0
-481 482 483 -484 485 0
-481 482 -483 484 485 0
-481 482 -483 -484 -485 0
-481 -482 483 484 485 0
-481 -482 483 -484 -485 0
-481 -482 -483 484 -485 0
-481 -482 -483 -484 485 0
-481 -482 -483 -484 -485 0
-47 486 0
-48 486 0
-50 486 0
-51 486 0
-54 486 0
-55 486 0
-486 47 48 50 51 54 55 0
-80 487 0
-81 487 0
-83 487 0
-84 487 0
-87 487 0
-88 487 0
-487 80 81 83 84 87 88 0
-190 488 0
-191 488 0
-193 488 0
-194 488 0
-197 488 0
-198 488 0
-488 190 191 193 194 197 198 0
-201 489 0
-202 489 0
-204 489 0
-205 489 0
-208 489 0
-209 489 0
-489 201 202 204 205 208 209 0
-212 490 0
-213 490 0
-215 490 0
-216 490 0
-219 490 0
-220 490 0
-490 212 213 215 216 219 220 0
486 487 488 489 -490 0
486 487 488 -489 490 0
486 487 488 -489 -490 0
486 487 -488 489 490 0
486 487 -488 489 -490 0
486 487 -488 -489 490 0
486 -487 488 489 490 0
486 -487 488 489 -490 0
486 -487 488 -489 490 0
486 -487 -488 489 490 0
486 -487 -488 -489 -490 0
-486 487 488 489 490 0
-486 487 488 489 -490 0
-486 487 488 -489 490 0
-486 487 -488 489 490 0
-486 487 -488 -489 -490 0
-486 -487 488 489 490 0
-486 -487 488 -489 -490 0
-486 -487 -488 489 -490 0
-486 -487 -488 -489 490 0
-486 -487 -488 -489 -490 0
-36 491 0
-38 491 0
-39 491 0
-41 491 0
-42 491 0
-44 491 0
-491 36 38 39 41 42 44 0
-47 492 0
-49 492 0
-50 492 0
-52 492 0
-53 492 0
-55 492 0
-492 47 49 50 52 53 55 0
-80 493 0
-82 493 0
-83 493 0
-85 493 0
-86 493 0
-88 493 0
-493 80 82 83 85 86 88 0
-135 494 0
-137 494 0
-138 494 0
-140 494 0
-141 494 0
-143 494 0
-494 135 137 138 140 141 143 0
-190 495 0
-192 495 0
-193 495 0
-195 495 0
-196 495 0
-198 495 0
-495 190 192 193 195 196 198 0
491 492 493 494 -495 0
491 492 493 -494 495 0
491 492 493 -494 -495 0
491 492 -493 494 495 0
491 492 -493 494 -495 0
491 492 -493 -494 495 0
491 -492 493 494 495 0
491 -492 493 494 -495 0
491 -492 493 -494 495 0
491 -492 -493 494 495 0
491 -492 -493 -494 -495 0
-491 492 493 494 495 0
-491 492 493 494 -495 0
-491 492 493 -494 495 0
-491 492 -493 494 495 0
-491 492 -493 -494 -495 0
-491 -492 493 494 495 0
-491 -492 493 -494 -495 0
-491 -492 -493 494 -495 0
-491 -492 -493 -494 495 0
-491 -492 -493 -494 -495 0
-69 496 0
-71 496 0
-72 496 0
-74 496 0
-75 496 0
-77 496 0
-496 69 71 72 74 75 77 0
-157 497 0
-159 497 0
-160 497 0
-162 497 0
-163 497 0
-165 497 0
-497 157 159 160 162 163 165 0
-179 498 0
-181 498 0
-182 498 0
-184 498 0
-185 498 0
-187 498 0
-498 179 181 182 184 185 187 0
-201 499 0
-203 499 0
-204 499 0
-206 499 0
-207 499 0
-209 499 0
-499 201 203 204 206 207 209 0
-212 500 0
-214 500 0
-215 500 0
-217 500 0
-218 500 0
-220 500 0
-500 212 214 215 217 218 220 0
496 497 498 499 -500 0
496 497 498 -499 500 0
496 497 498 -499 -500 0
496 497 -498 499 500 0
496 497 -498 499 -500 0
496 497 -498 -499 500 0
496 -497 498 499 500 0
496 -497 498 499 -500 0
496 -497 498 -499 500 0
496 -497 -498 499 500 0
496 -497 -498 -499 -500 0
-496 497 498 499 500 0
-496 497 498 499 -500 0
-496 497 498 -499 500 0
-496 497 -498 499 500 0
-496 497 -498 -499 -500 0
-496 -497 498 499 500 0
-496 -497 498 -499 -500 0
-496 -497 -498 499 -500 0
-496 -497 -498 -499 500 0
-496 -497 -498 -499 -500 0
-4 501 0
-5 501 0
-7 501 0
-8 501 0
-9 501 0
-10 501 0
-501 4 5 7 8 9 10 0
-37 502 0
-38 502 0
-40 502 0
-41 502 0
-42 502 0
-43 502 0
-502 37 38 40 41 42 43 0
-114 503 0
-115 503 0
-117 503 0
-118 503 0
-119 503 0
-120 503 0
-503 114 115 117 118 119 120 0
-125 504 0
-126 504 0
-128 504 0
-129 504 0
-130 504 0
-131 504 0
-504 125 126 128 129 130 131 0
-136 505 0
-137 505 0
-139 505 0
-140 505 0
-141 505 0
-142 505 0
-505 136 137 139 140 141 142 0
501 502 503 504 -505 0
501 502 503 -504 505 0
501 502 503 -504 -505 0
501 502 -503 504 505 0
501 502 -503 504 -505 0
501 502 -503 -504 505 0
501 -502 503 504 505 0
501 -502 503 504 -505 0
501 -502 503 -504 505 0
501 -502 -503 504 505 0
501 -502 -503 -504 -505 0
-501 502 503 504 505 0
-501 502 503 504 -505 0
-501 502 503 -504 505 0
-501 502 -503 504 505 0
-501 502 -503 -504 -505 0
-501 -502 503 504 505 0
-501 -502 503 -504 -505 0
-501 -502 -503 504 -505 0
-501 -502 -503 -504 505 0
-501 -502 -503 -504 -505 0
-26 506 0
-27 506 0
-29 506 0
-30 506 0
-31 506 0
-32 506 0
-506 26 27 29 30 31 32 0
-70 507 0
-71 507 0
-73 507 0
-74 507 0
-75 507 0
-76 507 0
-507 70 71 73 74 75 76 0
-103 508 0
-104 508 0
-106 508 0
-107 508 0
-108 508 0
-109 508 0
-508 103 104 106 107 108 109 0
-158 509 0
-159 509 0
-161 509 0
-162 509 0
-163 509 0
-164 509 0
-509 158 159 161 162 163 164 0
-180 510 0
-181 510 0
-183 510 0
-184 510 0
-185 510 0
-186 510 0
-510 180 181 183 184 185 186 0
506 507 508 509 -510 0
506 507 508 -509 510 0
506 507 508 -509 -510 0
506 507 -508 509 510 0
506 507 -508 509 -510 0
506 507 -508 -509 510 0
506 -507 508 509 510 0
506 -507 508 509 -510 0
506 -507 508 -509 510 0
506 -507 -508 509 510 0
506 -507 -508 -509 -510 0
-506 507 508 509 510 0
-506 507 508 509 -510 0
-506 507 508 -509 510 0
-506 507 -508 509 510 0
-506 507 -508 -509 -510 0
-506 -507 508 509 510 0
-506 -507 508 -509 -510 0
-506 -507 -508 509 -510 0
-506 -507 -508 -509 510 0
-506 -507 -508 -509 -510 0
-48 511 0
-49 511 0
-51 511 0
-52 511 0
-53 511 0
-54 511 0
-511 48 49 51 52 53 54 0
-81 512 0
-82 512 0
-84 512 0
-85 512 0
-86 512 0
-87 512 0
-512 81 82 84 85 86 87 0
-147 513 0
-148 513 0
-150 513 0
-151 513 0
-152 513 0
-153 513 0
-513 147 148 150 151 152 153 0
-169 514 0
-170 514 0
-172 514 0
-173 514 0
-174 514 0
-175 514 0
-514 169 170 172 173 174 175 0
-191 515 0
-192 515 0
-194 515 0
-195 515 0
-196 515 0
-197 515 0
-515 191 192 194 195 196 197 0
511 512 513 514 -515 0
511 512 513 -514 515 0
511 512 513 -514 -515 0
511 512 -513 514 515 0
511 512 -513 514 -515 0
511 512 -513 -514 515 0
511 -512 513 514 515 0
511 -512 513 514 -515 0
511 -512 513 -514 515 0
511 -512 -513 514 515 0
511 -512 -513 -514 -515 0
-511 512 513 514 515 0
-511 512 513 514 -515 0
-511 512 513 -514 515 0
-511 512 -513 514 515 0
-511 512 -513 -514 -515 0
-511 -512 513 514 515 0
-511 -512 513 -514 -515 0
-511 -512 -513 514 -515 0
-511 -512 -513 -514 515 0
-511 -512 -513 -514 -515 0
-15 516 0
-16 516 0
-18 516 0
-19 516 0
-20 516 0
-21 516 0
-516 15 16 18 19 20 21 0
-59 517 0
-60 517 0
-62 517 0
-63 517 0
-64 517 0
-65 517 0
-517 59 60 62 63 64 65 0
-92 518 0
-93 518 0
-95 518 0
-96 518 0
-97 518 0
-98 518 0
-518 92 93 95 96 97 98 0
-202 519 0
-203 519 0
-205 519 0
-206 519 0
-207 519 0
-208 519 0
-519 202 203 205 206 207 208 0
-213 520 0
-214 520 0
-216 520 0
-217 520 0
-218 520 0
-219 520 0
-520 213 214 216 217 218 219 0
516 517 518 519 -520 0
516 517 518 -519 520 0
516 517 518 -519 -520 0
516 517 -518 519 520 0
516 517 -518 519 -520 0
516 517 -518 -519 520 0
516 -517 518 519 520 0
516 -517 518 519 -520 0
516 -517 518 -519 520 0
516 -517 -518 519 520 0
516 -517 -518 -519 -520 0
-516 517 518 519 520 0
-516 517 518 519 -520 0
-516 517 518 -519 520 0
-516 517 -518 519 520 0
-516 517 -518 -519 -520 0
-516 -517 518 519 520 0
-516 -517 518 -519 -520 0
-516 -517 -518 519 -520 0
-516 -517 -518 -519 520 0
-516 -517 -518 -519 -520 0
2 3 4 5 6 7 8 9 10 11 13 14 15 16 17 18 19 20 21 22 24 25 26 27 28 29 30 31 32 33 35 36 37 38 39 40 41 42 43 44 46 47 48 49 50 51 52 53 54 55 57 58 59 60 61 62 63 64 65 66 68 69 70 71 72 73 74 75 76 77 79 80 81 82 83 84 85 86 87 88 90 91 92 93 94 95 96 97 98 99 101 102 103 104 105 106 107 108 109 110 112 113 114 115 116 117 118 119 120 121 123 124 125 126 127 128 129 130 131 132 134 135 136 137 138 139 140 141 142 143 145 146 147 148 149 150 151 152 153 154 156 157 158 159 160 161 162 163 164 165 167 168 169 170 171 172 173 174 175 176 178 179 180 181 182 183 184 185 186 187 189 190 191 192 193 194 195 196 197 198 200 201 202 203 204 205 206 207 208 209 211 212 213 214 215 216 217 218 219 220 0
221 222 223 224 225 1 67 78 89 199 0
226 227 228 229 230 23 56 111 133 188 0
231 232 233 234 235 1 78 89 111 133 0
236 237 238 239 240 23 56 67 188 199 0
241 242 243 244 245 1 23 56 89 111 0
246 247 248 249 250 67 78 133 188 199 0
251 252 253 254 255 1 23 67 111 133 0
256 257 258 259 260 56 78 89 188 199 0
261 262 263 264 265 1 78 111 133 188 0
266 267 268 269 270 23 56 67 89 199 0
271 272 273 274 275 34 100 122 144 210 0
276 277 278 279 280 12 45 155 166 177 0
281 282 283 284 285 12 45 100 155 210 0
286 287 288 289 290 34 122 144 166 177 0
291 292 293 294 295 12 100 122 144 166 0
296 297 298 299 300 34 45 155 177 210 0
301 302 303 304 305 34 100 122 155 177 0
306 307 308 309 310 12 45 144 166 210 0
311 312 313 314 315 34 45 122 144 166 0
316 317 318 319 320 12 100 155 177 210 0
321 322 323 324 325 1 78 89 100 210 0
326 327 328 329 330 34 67 122 144 199 0
331 332 333 334 335 1 89 100 122 144 0
336 337 338 339 340 34 67 78 199 210 0
341 342 343 344 345 1 34 67 100 122 0
346 347 348 349 350 78 89 144 199 210 0
351 352 353 354 355 1 34 78 122 144 0
356 357 358 359 360 67 89 100 199 210 0
361 362 363 364 365 12 45 111 133 155 0
366 367 368 369 370 23 56 166 177 188 0
371 372 373 374 375 12 23 56 111 166 0
376 377 378 379 380 45 133 155 177 188 0
381 382 383 384 385 23 111 133 155 177 0
386 387 388 389 390 12 45 56 166 188 0
391 392 393 394 395 45 111 133 166 188 0
396 397 398 399 400 12 23 56 155 177 0
401 402 403 404 405 1 12 89 100 111 0
406 407 408 409 410 45 78 133 155 210 0
411 412 413 414 415 1 100 111 133 155 0
416 417 418 419 420 12 45 78 89 210 0
421 422 423 424 425 1 45 78 111 133 0
426 427 428 429 430 12 89 100 155 210 0
431 432 433 434 435 23 56 122 144 166 0
436 437 438 439 440 34 67 177 188 199 0
441 442 443 444 445 23 34 67 122 177 0
446 447 448 449 450 56 144 166 188 199 0
451 452 453 454 455 34 122 144 166 188 0
456 457 458 459 460 23 56 67 177 199 0
461 462 463 464 465 1 23 100 111 122 0
466 467 468 469 470 12 56 89 144 166 0
471 472 473 474 475 1 111 122 144 166 0
476 477 478 479 480 12 23 56 89 100 0
481 482 483 484 485 34 67 133 155 177 0
486 487 488 489 490 45 78 188 199 210 0
491 492 493 494 495 34 45 78 133 188 0
496 497 498 499 500 67 155 177 199 210 0
501 502 503 504 505 1 34 111 122 133 0
506 507 508 509 510 23 67 100 155 177 0
511 512 513 514 515 45 78 144 166 188 0
516 517 518 519 520 12 56 89 199 210 0
-8 -20 -26 -37 -50 -66 -68 -86 -98 -104 -116 -128 -143 -153 -157 -173 -181 -189 -201 -216 0
